http 2264
like 310
get 293
love 274
new 240
go 224
day 221
thank 221
know 205
one 192
happi 185
make 182
time 182
good 177
look 165
today 162
need 154
peopl 153
want 148
via 147
got 145
think 142
u 138
see 135
say 134
come 133
thing 125
year 122
work 117
us 117
feel 117
let 114
take 113
pleas 113
life 112
ca 111
birthday 108
would 106
back 103
right 102
na 102
help 100
live 100
video 96
best 95
great 94
show 94
realli 94
last 93
lol 93
still 91
even 91
much 90
give 90
never 89
may 86
first 86
way 86
win 83
vote 82
watch 81
could 80
alway 80
girl 79
check 78
school 77
job 77
start 77
rt 76
someon 76
im 76
post 74
play 72
miss 72
world 72
person 71
fuck 70
god 70
follow 69
stop 68
talk 67
man 67
week 66
shit 66
lot 66
free 66
use 66
tell 65
music 64
support 64
leav 63
game 63
guy 63
wait 63
keep 61
better 60
chang 60
ever 60
final 60
morn 59
call 58
read 58
hope 57
friend 57
home 56
said 55
big 55
run 55
end 55
real 54
tri 54
gon 54
listen 54
put 53
photo 53
happen 53
everi 53
done 52
night 52
hate 51
find 51
oh 50
care 50
fan 50
beauti 50
everyon 50
someth 50
anoth 49
well 49
month 48
made 48
next 48
ask 48
tomorrow 48
littl 47
also 46
ye 46
must 46
learn 46
women 46
join 46
actual 46
two 46
mani 45
stori 45
news 44
youtub 44
summer 44
meet 43
open 43
tonight 43
excit 43
tweet 43
wan 43
nigga 43
share 43
trump 42
team 42
name 42
kill 41
hit 41
busi 41
stay 41
mean 41
boy 41
hard 41
hour 40
believ 40
fun 39
song 39
high 39
word 39
readi 39
old 39
student 39
alreadi 38
kind 38
tiffani 38
power 38
heart 38
babi 38
break 38
futur 37
bad 37
twitter 37
sure 37
book 37
rememb 37
money 36
soon 36
ur 36
media 36
long 36
singl 35
season 35
cri 35
hous 35
head 35
sinc 35
noth 35
wish 35
deal 35
away 34
face 34
awesom 34
okay 34
omg 34
offic 34
class 34
celebr 34
found 34
ai 34
kid 34
parti 34
part 33
top 33
thought 33
market 33
ad 33
amaz 33
report 33
danc 33
moment 33
place 33
drop 33
cute 32
everyth 32
yet 32
dream 32
nice 32
told 32
anyon 32
car 31
intern 31
pictur 31
x 31
mind 31
manag 31
offici 31
phone 31
idea 30
move 30
yeah 30
bitch 30
plan 30
sorri 30
fight 30
bring 30
build 29
might 29
origin 29
price 29
mom 29
close 29
ass 29
proud 29
retweet 29
travel 29
true 29
enjoy 29
announc 29
set 28
hi 28
colleg 28
turn 28
seen 28
full 28
sign 28
walk 28
enough 28
event 28
food 28
write 28
eat 27
dress 27
famili 27
guess 27
black 27
smile 27
die 27
social 27
ta 26
favorit 26
dead 26
hand 26
pretti 26
cool 26
link 26
without 26
differ 26
state 26
goal 26
interest 26
ok 26
text 26
film 26
test 26
hey 26
wow 25
onlin 25
facebook 25
hillari 25
reason 25
dont 25
happytaeyangday 25
bc 25
question 25
beat 25
yo 25
though 25
white 25
hear 25
worth 25
welcom 24
wrong 24
lmao 24
around 24
sound 24
problem 24
send 24
hell 24
design 24
r 24
wo 24
chanc 24
park 24
damn 24
unit 24
releas 24
fake 24
perfect 24
sleep 24
save 24
exam 24
forget 23
shot 23
app 23
nation 23
sale 23
light 23
key 23
anyth 23
import 23
ya 23
present 23
bless 23
south 23
special 23
understand 23
goe 23
went 23
visit 23
buy 23
lost 22
googl 22
w 22
june 22
art 22
star 22
number 22
finish 22
lie 22
left 22
polic 22
issu 22
whole 22
citi 22
fire 22
success 22
fall 21
caus 21
dog 21
men 21
second 21
american 21
trust 21
forc 21
biggest 21
funni 21
tuesday 21
receiv 21
n 21
forev 21
alon 21
tv 21
trip 21
pl 21
els 21
wonder 21
human 21
case 21
woman 21
small 20
gone 20
line 20
date 20
drink 20
answer 20
servic 20
togeth 20
current 20
pay 20
van 20
rock 20
fact 20
bodi 20
wake 20
ignor 20
paper 20
lose 20
hurt 20
mine 20
quot 20
anim 20
speak 20
late 20
sweet 19
point 19
mv 19
loui 19
three 19
updat 19
compani 19
begin 19
hold 19
order 19
blog 19
group 19
player 19
b 19
laugh 19
hello 19
ticket 19
later 19
other 19
million 19
studi 19
mad 19
femal 19
uk 19
becom 19
shop 19
ride 19
c 19
expect 19
voic 19
charg 19
bt 19
grow 19
latest 19
taeyang 18
email 18
perform 18
countri 18
forward 18
realtaeyang 18
harri 18
enter 18
teach 18
scare 18
everybodi 18
sky 18
avail 18
wear 18
inspir 18
cut 18
data 18
govern 18
matter 18
coffe 18
super 18
round 18
content 18
vs 18
throw 18
breakfast 18
seri 18
list 18
london 18
hot 18
instagram 18
young 18
project 17
sourc 17
charact 17
son 17
connect 17
worri 17
mark 17
came 17
behind 17
allow 17
touch 17
sell 17
eye 17
mother 17
liter 17
cant 17
record 17
hair 17
realiz 17
creat 17
commun 17
train 17
histori 17
view 17
lead 17
yesterday 17
radio 17
bill 17
bank 17
stuff 17
appreci 17
haha 17
war 17
ugli 17
surpris 17
mayb 17
low 16
instead 16
water 16
complet 16
parent 16
launch 16
movi 16
almost 16
fli 16
count 16
level 16
jose 16
leader 16
page 16
donat 16
bomb 16
gener 16
children 16
press 16
truth 16
tip 16
educ 16
act 16
notic 16
probabl 16
kiss 16
interview 16
trend 16
member 16
insid 16
death 16
footbal 16
articl 16
clean 16
soul 16
congrat 16
serious 16
mourinho 16
award 16
deserv 16
seem 16
minut 16
bro 16
daili 16
fit 16
america 16
websit 15
featur 15
nowplay 15
berni 15
direct 15
possibl 15
bae 15
campaign 15
crazi 15
step 15
short 15
cloth 15
court 15
sometim 15
discuss 15
fast 15
tire 15
protect 15
explain 15
anymor 15
preview 15
less 15
murder 15
tool 15
natur 15
health 15
episod 15
ago 15
absolut 15
reach 15
earli 15
joke 15
mental 15
confer 15
action 15
weekend 15
pass 15
far 15
몬스타엑스 15
pm 15
fear 15
offer 15
v 15
past 15
gaal 15
pull 15
pick 15
add 15
detail 15
return 15
suppos 15
univers 14
review 14
least 14
search 14
saw 14
blue 14
dude 14
coupl 14
smh 14
luck 14
challeng 14
store 14
tho 14
safe 14
aqabiolog 14
pic 14
kick 14
bed 14
half 14
red 14
remain 14
total 14
shoot 14
rest 14
polit 14
sick 14
gave 14
cours 14
experi 14
public 14
spend 14
squad 14
teacher 14
ppl 14
confirm 14
leagu 14
giveaway 14
sit 14
drive 14
lil 14
skill 14
winner 14
version 14
paid 14
opportun 14
album 13
warrior 13
age 13
imagin 13
billion 13
jame 13
local 13
took 13
pray 13
posit 13
beach 13
continu 13
iphon 13
control 13
hoe 13
gold 13
artist 13
site 13
memori 13
space 13
tree 13
driver 13
hire 13
chicken 13
plu 13
lord 13
fail 13
brother 13
stand 13
independ 13
club 13
internet 13
air 13
middl 13
room 13
sing 13
tour 13
np 13
faith 13
friday 13
accept 13
includ 13
technolog 13
fix 13
promis 13
cover 13
gift 13
network 13
harvey 13
mix 13
repli 13
dumb 13
thursday 12
avoid 12
judg 12
accord 12
given 12
e 12
queen 12
sad 12
appl 12
abt 12
huge 12
sunday 12
dad 12
uber 12
major 12
dm 12
road 12
board 12
system 12
worker 12
senior 12
worst 12
catch 12
presid 12
type 12
nike 12
outsid 12
ladi 12
heard 12
definit 12
걸어 12
speech 12
improv 12
fine 12
model 12
norway 12
five 12
box 12
side 12
hug 12
abus 12
attent 12
minhyuk 12
fat 12
sport 12
arriv 12
feat 12
stress 12
strong 12
oil 12
deep 12
tech 12
pop 12
eu 12
lucki 12
cup 12
burn 11
elect 11
session 11
soundcloud 11
pack 11
leadership 11
manchest 11
ji 11
risk 11
agre 11
cost 11
prepar 11
score 11
front 11
justic 11
door 11
easi 11
respons 11
idk 11
claim 11
modi 11
result 11
race 11
mention 11
match 11
promot 11
hyungwon 11
suck 11
indian 11
peac 11
etc 11
global 11
manutd 11
exist 11
l 11
abl 11
sun 11
annoy 11
achiev 11
screen 11
arm 11
saturday 11
messag 11
attack 11
imag 11
strike 11
relationship 11
that 11
whymediahidesfact 11
smart 11
mr 11
rais 11
amazon 11
bone 11
ship 11
simpl 11
central 11
afraid 11
involv 11
street 11
john 11
download 11
scienc 11
common 11
rule 11
joe 11
startup 11
sister 11
base 11
violenc 11
track 11
situat 11
arrest 11
former 10
ice 10
info 10
near 10
shirt 10
coach 10
reaction 10
drake 10
youth 10
incred 10
straight 10
beyond 10
product 10
seek 10
ion 10
af 10
ball 10
serv 10
nobodi 10
attend 10
process 10
snapchat 10
digit 10
wast 10
concern 10
prove 10
smoke 10
secur 10
energi 10
secret 10
polici 10
color 10
cycl 10
develop 10
rate 10
target 10
king 10
transform 10
account 10
sens 10
cross 10
met 10
cold 10
fantast 10
p 10
languag 10
convers 10
invit 10
chase 10
titl 10
trash 10
except 10
buckl 10
cunt 10
twice 10
focu 10
terrorist 10
gorgeou 10
limit 10
bet 10
realdonaldtrump 10
crook 10
donald 10
card 10
championship 10
camera 10
mp 10
center 10
gain 10
la 10
fought 10
honestli 10
husband 10
weather 10
pain 10
blame 10
patient 10
clear 10
quarter 10
drunk 10
click 10
credit 10
fund 10
congratul 10
poll 10
realiti 10
dear 10
role 10
custom 10
piec 10
ahead 10
labour 10
difficult 10
wed 10
dollar 10
airport 10
cat 10
hq 10
york 10
choic 10
expos 10
lunch 10
oregon 10
clinton 10
aldubloversinitali 9
truli 9
entertain 9
matt 9
grade 9
field 9
boss 9
magic 9
town 9
engin 9
opposit 9
practic 9
ran 9
brand 9
tune 9
vibe 9
brain 9
canada 9
parliament 9
prais 9
recent 9
consum 9
law 9
obama 9
journey 9
somebodi 9
bathroom 9
england 9
reveal 9
militari 9
slow 9
rat 9
ugh 9
motiv 9
west 9
grab 9
pink 9
green 9
quit 9
meant 9
lebron 9
congress 9
exactli 9
attitud 9
wtf 9
host 9
respond 9
idiot 9
teaser 9
appear 9
stream 9
potenti 9
within 9
compet 9
brazil 9
yall 9
item 9
bigger 9
yea 9
rain 9
wave 9
whatev 9
heaven 9
lit 9
quick 9
cancer 9
medic 9
consid 9
comment 9
tast 9
fill 9
exclus 9
program 9
battl 9
neg 9
isnt 9
shoe 9
machin 9
commit 9
random 9
prom 9
disappoint 9
research 9
treat 9
graduat 9
ʷʰᵉʳᵉ 9
japan 8
jessica 8
concert 8
collect 8
glad 8
hat 8
min 8
jordan 8
area 8
seriou 8
especi 8
tbh 8
etsi 8
style 8
edit 8
scream 8
rip 8
earth 8
extra 8
forgot 8
deliv 8
sander 8
revis 8
hillaryclinton 8
code 8
note 8
bob 8
pa 8
sponsor 8
loss 8
breath 8
truck 8
de 8
fulli 8
tribut 8
bbc 8
due 8
basebal 8
scene 8
warm 8
lifetim 8
trade 8
plant 8
among 8
lang 8
focus 8
nba 8
assist 8
industri 8
remov 8
poor 8
knew 8
olymp 8
plz 8
guid 8
benefit 8
mountain 8
crime 8
cook 8
main 8
makeup 8
block 8
privat 8
em 8
woohyun 8
favourit 8
talent 8
nah 8
weird 8
lesson 8
da 8
six 8
stage 8
sir 8
fandom 8
neighborhood 8
clark 8
island 8
recommend 8
tap 8
admit 8
shut 8
refus 8
ssnhq 8
activ 8
mobil 8
castl 8
weight 8
goodnight 8
transgend 8
decis 8
bout 8
cultur 8
copi 8
particip 8
fox 8
partner 8
affect 8
father 8
hungri 8
daughter 8
taehyung 8
mf 8
closer 8
buddi 8
rise 8
fav 8
kinda 8
debat 8
lay 8
strength 8
fair 8
trailer 8
felt 8
retir 8
contract 8
steam 8
gender 8
retail 8
mile 8
seat 8
troubl 8
aint 8
push 8
mum 8
either 7
sex 7
forgiv 7
form 7
fals 7
stock 7
pr 7
fruit 7
happybaebaeday 7
spring 7
athlet 7
stone 7
economi 7
platform 7
jump 7
lmfao 7
chip 7
workout 7
exercis 7
valu 7
file 7
socialmedia 7
brilliant 7
standard 7
organ 7
playlist 7
influenc 7
doctor 7
baghdad 7
princ 7
career 7
nose 7
wall 7
iot 7
mission 7
rap 7
curs 7
self 7
sent 7
thunder 7
korean 7
periscop 7
resourc 7
disney 7
android 7
chariti 7
seed 7
holi 7
qualifi 7
struggl 7
mike 7
yr 7
ijwd 7
sooyoung 7
festiv 7
lyric 7
broke 7
largest 7
entir 7
older 7
depend 7
ko 7
rather 7
edg 7
f 7
turkey 7
folk 7
reuter 7
david 7
switch 7
fell 7
muslim 7
anyway 7
xhttp 7
broken 7
boyfriend 7
analyt 7
male 7
steal 7
gay 7
north 7
cake 7
assign 7
surfac 7
miami 7
swear 7
g 7
eagl 7
regist 7
kim 7
dj 7
mouth 7
writer 7
petti 7
aliv 7
slay 7
attract 7
suffer 7
kentucki 7
davi 7
vid 7
station 7
bid 7
remind 7
tear 7
survey 7
ga 7
respect 7
safeti 7
bar 7
colour 7
address 7
creativ 7
wit 7
nomin 7
ka 7
captain 7
iraq 7
longer 7
monsta 7
taken 7
comfort 7
storm 7
domin 7
handl 7
epic 7
wine 7
premier 7
germani 7
pro 7
jesu 7
depress 7
cuz 7
divers 7
blood 7
bag 7
horribl 7
healthi 7
ceo 7
brown 7
sapphirenow 7
democrat 7
doubl 7
twin 7
bapu 7
vacat 7
chick 7
demand 7
cav 7
foreign 7
mplusplac 7
crush 7
moto 7
till 7
illeg 7
sampl 7
hahaha 7
hilari 7
mate 7
sort 7
publish 7
florida 7
solo 7
land 6
asaram 6
autom 6
neet 6
giant 6
io 6
depot 6
suddenli 6
di 6
sea 6
fashion 6
cooler 6
rout 6
bead 6
shine 6
wife 6
possess 6
friendli 6
mode 6
rapper 6
lazi 6
leg 6
til 6
hall 6
impact 6
al 6
monday 6
china 6
coldplay 6
lad 6
studio 6
usa 6
provid 6
wednesday 6
introduc 6
thx 6
loos 6
advic 6
terribl 6
mood 6
wash 6
robot 6
방탄소년단 6
homophobia 6
transphobia 6
relat 6
kept 6
theater 6
joy 6
growth 6
lee 6
speed 6
jagger 6
effect 6
bianca 6
awar 6
scale 6
balanc 6
zayn 6
simpli 6
nick 6
nj 6
appli 6
magazin 6
dat 6
bite 6
repeat 6
knowledg 6
effort 6
belieb 6
complain 6
canadian 6
graviti 6
govt 6
justinbieb 6
spread 6
tale 6
gate 6
giro 6
kati 6
lectur 6
wrote 6
express 6
excel 6
third 6
recruit 6
alcohol 6
dick 6
bday 6
exit 6
yoga 6
union 6
k 6
wire 6
favor 6
puppi 6
purposetour 6
financi 6
thailand 6
ny 6
gurmeetramrahim 6
beast 6
child 6
bullpen 6
strang 6
russian 6
hero 6
honor 6
victim 6
sold 6
inform 6
discov 6
hospit 6
east 6
four 6
cop 6
tryna 6
will 6
sack 6
english 6
itali 6
kenya 6
non 6
stupid 6
alright 6
suspect 6
alert 6
ocean 6
debut 6
jewelri 6
christian 6
comput 6
nashvil 6
vehicl 6
chanyeol 6
decid 6
draft 6
urg 6
chicago 6
gap 6
condit 6
si 6
westbrook 6
individu 6
evil 6
dna 6
often 6
india 6
profession 6
recip 6
electr 6
grand 6
drug 6
dark 6
restaur 6
draw 6
proof 6
execut 6
insur 6
modern 6
zero 6
confus 6
adult 6
cow 6
corpor 6
hill 6
marri 6
circl 6
alabama 6
bore 6
expens 6
drama 6
hater 6
hai 6
co 6
caught 6
lock 6
correct 6
failur 6
client 6
monster 6
rose 6
mess 6
fish 6
exhibit 6
bigdata 6
nigerian 6
anniversari 6
sunshin 6
snap 6
per 6
legal 6
tcot 6
grant 6
fool 6
soccer 6
champion 6
sukira 6
demo 6
tie 6
load 6
innov 6
scientist 6
statement 6
zone 6
euro 6
jersey 6
fanci 6
larg 6
anthoni 6
founder 6
paint 6
complex 6
headach 5
danger 5
carolina 5
cheer 5
sa 5
ap 5
oracl 5
pari 5
jay 5
novel 5
joint 5
bright 5
flag 5
describ 5
bought 5
ador 5
fb 5
scari 5
cast 5
europ 5
holiday 5
delet 5
icymi 5
amend 5
toward 5
hang 5
destroy 5
budget 5
harder 5
settl 5
rude 5
honey 5
gass 5
chat 5
carl 5
core 5
mistak 5
suggest 5
jungkook 5
cure 5
tough 5
repres 5
nyc 5
doubt 5
harm 5
patienc 5
crosbi 5
protest 5
nail 5
mysteri 5
dub 5
arena 5
rn 5
hs 5
path 5
taylor 5
hack 5
sexual 5
maker 5
prefer 5
civil 5
feelthebern 5
jackson 5
highlight 5
explos 5
dancer 5
ryan 5
leigh 5
inde 5
citizen 5
emot 5
regret 5
galaxi 5
promo 5
choos 5
heel 5
lake 5
corrupt 5
tu 5
approach 5
analysi 5
bu 5
hp 5
celtic 5
russel 5
chocol 5
discrimin 5
invest 5
econom 5
awkward 5
african 5
freak 5
televis 5
voter 5
smash 5
fresh 5
forecast 5
wing 5
rush 5
stargaz 5
upset 5
po 5
cann 5
normal 5
cheap 5
playoff 5
photographi 5
weapon 5
apart 5
reduc 5
qualiti 5
aww 5
function 5
blow 5
flight 5
adopt 5
zeeexposesjnutraitor 5
uncl 5
justin 5
diari 5
sock 5
expert 5
ban 5
delhi 5
goodby 5
aap 5
pair 5
boston 5
hashtag 5
ipad 5
journal 5
born 5
worldwid 5
appoint 5
scratch 5
candi 5
channel 5
gop 5
romanc 5
injuri 5
author 5
dem 5
jim 5
concept 5
vine 5
nap 5
imposs 5
mass 5
stun 5
kyprimari 5
religion 5
juli 5
stamp 5
upcom 5
mainedcm 5
encourag 5
camp 5
corner 5
select 5
farm 5
suit 5
thrill 5
mac 5
contest 5
espn 5
inferior 5
squar 5
electron 5
자격지심 5
employ 5
usual 5
cd 5
hood 5
specif 5
eight 5
letter 5
whoever 5
beg 5
softbal 5
pressur 5
abil 5
preciou 5
produc 5
ordinari 5
quiet 5
wearabl 5
chill 5
keyboard 5
pizza 5
unless 5
cash 5
prison 5
across 5
brave 5
council 5
skinni 5
stake 5
prod 5
deliveri 5
accomplish 5
chief 5
size 5
liber 5
chri 5
dinner 5
jimin 5
pocket 5
chair 5
locat 5
daddi 5
stare 5
pleasur 5
tran 5
marriag 5
border 5
integr 5
vaccin 5
topic 5
blond 5
known 5
vernon 5
workshop 5
disgust 5
calm 5
lawyer 5
boom 5
pet 5
owner 5
bottl 5
nasa 5
cb 5
schedul 5
zaynmalik 5
oop 5
itun 5
wors 5
endors 5
loan 5
candid 5
etern 5
xx 5
fa 5
salmon 5
region 5
biggi 5
gun 5
mi 5
cnet 5
arsen 5
traveltuesday 5
conserv 5
transit 5
period 5
transfer 5
yay 5
en 5
flower 5
trafford 5
sexi 5
tabl 5
wild 5
physic 5
lifetaughtm 5
request 5
kyung 5
vr 5
glass 5
rb 5
comeback 5
clue 5
hamilton 5
shame 5
comic 5
preach 5
ocrbiolog 5
babe 5
hotel 5
josh 5
ah 5
term 5
un 5
embarrass 5
adn 5
birth 5
fri 5
crowdfund 5
pakistan 5
basketbal 5
nurs 5
jacket 5
podcast 5
nigeria 5
entri 5
senat 4
genet 4
dirti 4
toronto 4
fed 4
stoppolicebrut 4
afternoon 4
sever 4
odd 4
frame 4
mostli 4
iron 4
regul 4
theori 4
sone 4
spin 4
expedia 4
troll 4
eff 4
snp 4
remix 4
fuckin 4
qb 4
aqa 4
niall 4
semest 4
delight 4
unveil 4
asap 4
bia 4
antonio 4
coz 4
scotland 4
percent 4
insult 4
doesnt 4
hide 4
he 4
subscrib 4
documentari 4
ate 4
zumaqanda 4
hottest 4
audit 4
newslett 4
adventur 4
ty 4
asleep 4
asset 4
ben 4
whose 4
cruis 4
committe 4
christ 4
onto 4
toilet 4
spot 4
abc 4
shift 4
everyday 4
conspiraci 4
defin 4
coordin 4
regard 4
argu 4
rescu 4
duti 4
shape 4
recap 4
bare 4
beer 4
liam 4
subject 4
signal 4
appeal 4
fiction 4
intent 4
alleg 4
script 4
friendship 4
larri 4
broadcast 4
seth 4
tax 4
tag 4
minist 4
photograph 4
wen 4
ruin 4
innoc 4
tea 4
cheek 4
shall 4
wont 4
wrap 4
bracelet 4
divin 4
strive 4
tab 4
ha 4
becam 4
midnight 4
amount 4
showcas 4
angel 4
archiv 4
villag 4
command 4
kindheartedmsg 4
kitchen 4
pure 4
golden 4
compar 4
dave 4
tzuyu 4
puma 4
armi 4
tempt 4
tim 4
meme 4
selfi 4
wembley 4
et 4
huh 4
cruz 4
river 4
ota 4
gym 4
lover 4
movement 4
pc 4
egg 4
beij 4
translat 4
labor 4
tuesdaymotiv 4
contact 4
map 4
identifi 4
prayer 4
charm 4
tan 4
hike 4
cuti 4
statu 4
bit 4
debt 4
hubtowngreenwood 4
shi 4
flow 4
surviv 4
ensur 4
iran 4
neck 4
aid 4
log 4
basic 4
asshol 4
faster 4
flash 4
fintech 4
bagel 4
havent 4
thug 4
collabor 4
accur 4
syria 4
sidney 4
flood 4
legit 4
hahah 4
cooki 4
ive 4
coupon 4
window 4
unfortun 4
drag 4
purpl 4
explor 4
techniqu 4
recoveri 4
tf 4
gal 4
andi 4
boot 4
trophi 4
bitcoin 4
philli 4
starv 4
ex 4
bullshit 4
billboard 4
girlfriend 4
lane 4
whip 4
yeh 4
inmat 4
headlin 4
gov 4
nomine 4
chart 4
gm 4
garden 4
properti 4
captur 4
excus 4
golf 4
lakh 4
rainbow 4
predict 4
approv 4
intellig 4
insight 4
swami 4
outta 4
dylan 4
apolog 4
display 4
pentagon 4
suppli 4
grandma 4
stronger 4
cnn 4
propos 4
freedom 4
diseas 4
aldubloversinitalyhttp 4
lick 4
cameron 4
skin 4
stick 4
altern 4
accus 4
yt 4
investig 4
option 4
campu 4
prank 4
knife 4
bunch 4
accid 4
cousin 4
fr 4
sum 4
thick 4
bond 4
statist 4
fml 4
sauc 4
grad 4
piano 4
spaceship 4
resurg 4
luv 4
figur 4
instal 4
gear 4
massiv 4
librari 4
apc 4
mirrorliveeu 4
brought 4
mc 4
con 4
victoria 4
sub 4
박경 4
foot 4
mama 4
dope 4
flame 4
rig 4
agent 4
taeyeon 4
cam 4
orphan 4
chef 4
robinson 4
oper 4
behavior 4
learnt 4
lower 4
gem 4
insta 4
kindli 4
ten 4
referendum 4
export 4
spain 4
que 4
signific 4
primari 4
sunni 4
generousmsg 4
toddler 4
crack 4
jonathan 4
obsess 4
wireless 4
jason 4
jail 4
prize 4
gif 4
cr 4
construct 4
greet 4
tue 4
greedi 4
kit 4
fw 4
conduct 4
okc 4
houston 4
feed 4
russia 4
financ 4
applic 4
loyal 4
cream 4
adam 4
wildlif 4
sticker 4
bruh 4
hype 4
tick 4
nest 4
spent 4
scandal 4
venu 4
depart 4
stadium 4
subway 4
bribe 4
onthisday 4
upload 4
rare 4
wind 4
stall 4
awak 4
tokyo 4
je 4
solid 4
perhap 4
bay 4
rlli 4
along 4
thu 4
grate 4
audienc 4
washington 4
herehttp 4
malaysia 4
menstrual 4
sneak 4
progress 4
french 4
famou 4
thread 4
wise 4
zuma 4
littlemix 4
certain 4
tongu 4
agenc 4
pitch 4
consol 4
mason 4
berniesand 4
gross 4
cloud 4
tidetuesday 4
lou 4
knick 4
extrem 4
isi 4
everywher 4
tournament 4
bori 4
wolf 4
vintag 4
neutral 4
au 4
highest 4
theview 4
tori 4
recov 4
basi 4
increas 4
user 4
keynot 4
escap 4
donut 4
artwork 4
crew 4
competit 4
courag 4
agenda 4
empow 4
journalist 3
panda 3
gayoon 3
glori 3
oklahoma 3
prevent 3
root 3
steven 3
greatest 3
obsoletejobskil 3
rough 3
tee 3
watermelon 3
booth 3
nlc 3
garbag 3
drramansingh 3
threat 3
trumptrain 3
bear 3
rider 3
suhilabnlachhab 3
minor 3
sb 3
sacrific 3
disappear 3
chest 3
lanaparrilla 3
kb 3
handsom 3
geekyranjit 3
cyru 3
director 3
sweat 3
miley 3
hillsborough 3
poster 3
bug 3
teenchoic 3
askgeekyranjit 3
medium 3
munich 3
volunt 3
irish 3
nake 3
repost 3
equiti 3
ghostbust 3
access 3
crimin 3
worthi 3
defenc 3
struck 3
stair 3
iamjulian 3
western 3
pug 3
hostil 3
stfu 3
yup 3
spice 3
acknowledg 3
degre 3
master 3
ba 3
veep 3
msp 3
rad 3
professor 3
airtel 3
georg 3
kindl 3
histor 3
ki 3
luke 3
scam 3
plane 3
mufc 3
robert 3
adida 3
advanc 3
le 3
politician 3
doe 3
goat 3
dover 3
nobl 3
investor 3
countdown 3
socent 3
rogu 3
enya 3
abort 3
institut 3
smith 3
societi 3
ransomwar 3
franc 3
xd 3
constitut 3
indi 3
ranch 3
hunt 3
git 3
burst 3
ranger 3
hoodi 3
pepper 3
delici 3
astair 3
tripl 3
slflpari 3
stab 3
criticis 3
analog 3
loud 3
olli 3
johnni 3
freebiafra 3
ohhh 3
fam 3
arianagrand 3
emerg 3
crap 3
brexit 3
relev 3
bieber 3
biafran 3
outfit 3
clash 3
bbcrecip 3
earlier 3
soldier 3
finna 3
heat 3
dalla 3
vega 3
bjp 3
charlesfr 3
jet 3
republican 3
yield 3
ng 3
khan 3
deepli 3
miller 3
opinion 3
shooter 3
decent 3
audio 3
joseph 3
centr 3
dnc 3
hella 3
sturgeon 3
wet 3
unfair 3
british 3
yellow 3
retest 3
logic 3
sam 3
fin 3
potu 3
doodl 3
sprole 3
convent 3
seven 3
persona 3
craft 3
exo 3
harmoni 3
vimeo 3
freez 3
fiscal 3
ultim 3
segment 3
spi 3
row 3
misus 3
gong 3
uganda 3
mү 3
lolhttp 3
inc 3
bonu 3
bibl 3
estat 3
farag 3
daniel 3
theme 3
elimin 3
inch 3
rang 3
held 3
ariel 3
steve 3
impeach 3
deni 3
th 3
butcher 3
jean 3
rank 3
intro 3
flawless 3
sara 3
regular 3
traffic 3
dot 3
commerci 3
method 3
engag 3
april 3
tock 3
guard 3
reunion 3
disast 3
stark 3
spotlight 3
speaker 3
assembl 3
divis 3
minecraft 3
crash 3
forest 3
alli 3
consequ 3
crop 3
ff 3
intend 3
cocktail 3
frm 3
bestfriend 3
punjab 3
nope 3
mcd 3
stabil 3
sweden 3
henri 3
udta 3
chairman 3
momma 3
alexa 3
mic 3
anti 3
eastern 3
blackfish 3
math 3
thi 3
ig 3
declar 3
damag 3
lfc 3
uniqu 3
aim 3
hehe 3
htc 3
virtual 3
rick 3
ot 3
ileagu 3
repair 3
ariana 3
somethin 3
shown 3
rajan 3
diet 3
district 3
lookin 3
openfog 3
obvious 3
built 3
raghuram 3
ho 3
ju 3
cyber 3
bottom 3
sap 3
contain 3
compens 3
peak 3
packag 3
ted 3
bark 3
hurdl 3
impress 3
bathtub 3
ireland 3
assum 3
үou 3
melodi 3
clare 3
bristol 3
bitter 3
registr 3
kingdom 3
ea 3
brag 3
genuin 3
cigarett 3
conf 3
critic 3
snail 3
singer 3
msg 3
ground 3
ridicul 3
clinic 3
sunset 3
section 3
represent 3
durant 3
underag 3
mvp 3
rey 3
soooo 3
msgpreach 3
jona 3
del 3
gratitud 3
brodi 3
dri 3
condo 3
complaint 3
hors 3
sin 3
jon 3
whisper 3
rich 3
monkey 3
pride 3
idahot 3
toxic 3
lmfaohttp 3
tfw 3
fuckign 3
california 3
livetradingnew 3
pot 3
deposit 3
alarm 3
clutch 3
imma 3
piss 3
moral 3
church 3
nowornev 3
rep 3
su 3
requir 3
confess 3
jacob 3
band 3
leeteuk 3
exampl 3
omfg 3
convert 3
rid 3
smooth 3
oblig 3
vike 3
gigi 3
anger 3
renam 3
sri 3
flail 3
medit 3
submit 3
dozen 3
singapor 3
bye 3
nuclear 3
conglomer 3
transport 3
wwe 3
suga 3
martin 3
rumor 3
phil 3
wattpad 3
liar 3
reflect 3
snack 3
hbd 3
snitch 3
consist 3
cockroach 3
contribut 3
uefa 3
weekli 3
chad 3
valuabl 3
exploit 3
floor 3
print 3
eh 3
reform 3
storag 3
angri 3
reviewexpert 3
unlik 3
pathet 3
uj 3
fee 3
curv 3
despit 3
partnership 3
tend 3
bf 3
boost 3
plate 3
yachti 3
domest 3
highway 3
foreverhttp 3
stuck 3
lip 3
fred 3
vet 3
infograph 3
jk 3
breakthrough 3
breast 3
bust 3
jae 3
pattern 3
guest 3
tape 3
teen 3
cc 3
baltimor 3
tactic 3
recept 3
dublin 3
yoongi 3
swallow 3
turtl 3
lipstick 3
anybodi 3
tattoo 3
fraud 3
princip 3
se 3
spoiler 3
jeff 3
none 3
pregnanc 3
spoil 3
st 3
onewildassparti 3
clublacura 3
verg 3
neverendum 3
seventeen 3
meltdown 3
erpestar 3
resurgen 3
angela 3
slot 3
commiss 3
appar 3
authent 3
humbl 3
softwar 3
spirit 3
yu 3
upcycl 3
screw 3
biolog 3
ear 3
surrey 3
bacon 3
hahahaha 3
tom 3
your 3
gomez 3
devil 3
adapt 3
id 3
prioriti 3
rape 3
freshman 3
franki 3
throne 3
leak 3
chemic 3
atom 3
kristen 3
feder 3
banana 3
peel 3
carbon 3
immedi 3
bali 3
strip 3
icon 3
saint 3
academ 3
unexpect 3
branch 3
carter 3
provision 3
conrad 3
ebay 3
solut 3
avenu 3
blanket 3
jerk 3
upa 3
furnitur 3
freed 3
tx 3
killer 3
cherish 3
btw 3
withdraw 3
ancient 3
wowhttp 3
maga 3
nearli 3
grave 3
ab 3
telli 3
narendramodi 3
brief 3
insect 3
ankara 3
erdogan 3
earn 3
testifi 3
lack 3
visual 3
classi 3
enhanc 3
mentor 3
grey 3
pile 3
crowd 3
middlesbrough 3
resist 3
ralli 3
incom 3
mirror 3
justifi 3
suprem 3
tak 3
ballon 3
chapter 3
tart 3
palac 3
nafta 3
jami 3
ima 3
texa 3
veteran 3
persist 3
bike 3
cleveland 3
paul 3
rejoic 3
bulli 3
thankyou 3
forgotten 3
ajay 3
determin 3
vip 3
uniti 3
internship 3
booker 3
legendari 3
cowboy 3
enlighten 3
aw 3
interact 3
tl 3
web 3
camren 3
comedi 3
stain 3
annual 3
planet 3
setup 3
controversi 3
nich 3
remark 3
curiou 3
beef 3
lion 3
button 3
ang 3
nat 3
islam 3
hurri 3
dlc 3
maintain 3
melt 3
height 3
gina 3
lo 3
clearli 3
lool 3
mail 3
trap 3
cafe 3
yell 3
lurk 3
eventu 3
asmsg 3
misfit 3
shake 3
elementari 3
combin 3
obamacar 3
somehow 3
jooheon 3
mighti 3
realis 3
nc 3
anytim 3
shoulder 3
honest 3
bow 3
defens 3
youngest 3
borisjohnson 3
brooklyn 3
shepherd 3
dr 3
san 3
carpet 3
ill 3
entrepreneur 3
pancak 3
beyonc 3
rs 3
perri 3
quiz 3
israel 3
trail 3
ep 3
separ 3
strategi 3
ky 3
calendar 3
muscl 3
avi 3
transpar 3
yoona 3
dine 3
blunt 3
nois 3
mari 3
princess 3
pour 3
hon 3
blockchain 3
invent 3
overcom 3
belief 3
dock 3
spotifi 3
japanes 3
beta 3
coast 3
bird 3
shout 3
chanel 3
reject 3
mosquito 3
nytim 3
ne 3
booti 3
nerv 3
sunris 3
allen 3
happier 3
pregnant 3
solar 3
pinterest 3
pin 3
bm 3
passport 3
clay 3
nicola 3
stroke 3
thetideaustin 3
dental 3
shallowopposit 3
cricket 3
brighton 3
bernardokath 3
tsourunaway 3
macoy 3
diamond 3
yang 3
thetiden 3
leed 3
buzz 3
offshor 3
nawaziscurs 3
averag 3
childhood 3
knee 3
med 3
doom 3
punish 3
xbox 3
scrap 3
vegetarian 3
champ 3
petit 3
scissor 3
peter 3
octob 3
hmm 3
compliment 3
thetidelevi 3
thetidedrew 3
j 3
yep 3
affirm 3
costa 3
proceed 3
structur 3
brunch 3
kpop 3
britain 3
jealou 3
butter 2
kyuhyun 2
atleast 2
thriller 2
swing 2
alden 2
pastor 2
op 2
battleborn 2
addict 2
wouldnt 2
grassroot 2
yess 2
payn 2
builder 2
pedigre 2
klopp 2
koch 2
whoop 2
macygrayslif 2
journeywithinbook 2
prob 2
nutti 2
collab 2
leavemelon 2
pup 2
thankshttp 2
oldsmobil 2
william 2
februari 2
profess 2
task 2
liberti 2
nw 2
brb 2
slap 2
jen 2
duke 2
stigma 2
auspol 2
couch 2
mba 2
ds 2
ipl 2
postag 2
closeupph 2
mooc 2
castro 2
vol 2
kirbi 2
mixtap 2
classic 2
reelect 2
sevilla 2
closeupforeversumm 2
backhttp 2
str 2
meletop 2
buhari 2
dur 2
misrepres 2
algebra 2
fifth 2
lotteri 2
mock 2
nbc 2
googleanalyt 2
theultimatereactionvideo 2
lvg 2
alex 2
defeat 2
deeper 2
derulo 2
iv 2
prostitut 2
canvass 2
guardian 2
sooo 2
nbacommunityassist 2
toast 2
pentagonmak 2
royal 2
ict 2
treatment 2
captiv 2
poorli 2
dazzl 2
strokemonth 2
swim 2
idc 2
vietnam 2
burrito 2
unexpectedli 2
ponder 2
portabl 2
tm 2
budden 2
mt 2
winton 2
sass 2
powerless 2
scheme 2
ccot 2
stranger 2
experienc 2
quickli 2
volum 2
beard 2
lesser 2
marker 2
colin 2
maxim 2
consent 2
orlando 2
simon 2
toyin 2
aimakhu 2
ethic 2
pune 2
railroad 2
ay 2
ight 2
charger 2
trial 2
pre 2
naw 2
farmer 2
indulg 2
relinquish 2
giulio 2
ciccon 2
supervisor 2
phinney 2
presenc 2
hern 2
mommi 2
niya 2
idol 2
sat 2
qs 2
assur 2
camaro 2
guilti 2
percept 2
choc 2
onlinecours 2
leprosi 2
dctv 2
puerto 2
craig 2
rico 2
lac 2
flex 2
jazz 2
perfectli 2
somewher 2
nz 2
nra 2
parallel 2
myr 2
playboy 2
terror 2
unlimit 2
찬열 2
greater 2
exp 2
navig 2
buyer 2
mcm 2
spoken 2
amex 2
yl 2
buffalo 2
ghost 2
dynam 2
shelbi 2
sweep 2
supposedli 2
michael 2
migrant 2
scholar 2
rebound 2
portion 2
jan 2
slip 2
youhttp 2
dutch 2
monopoli 2
maverick 2
mansion 2
cancel 2
abandon 2
teammat 2
whoa 2
ou 2
matthew 2
honour 2
hub 2
cub 2
chronic 2
kang 2
sha 2
sud 2
yorker 2
cryin 2
britt 2
obviou 2
bucki 2
basedgod 2
tulsa 2
genr 2
nowher 2
han 2
daebak 2
nate 2
exchang 2
jewelrybycarm 2
pint 2
chees 2
quicker 2
chubbi 2
european 2
compel 2
everytim 2
finger 2
bn 2
casual 2
dairi 2
auction 2
succeed 2
gator 2
deadlin 2
fibrosi 2
brazilian 2
cystic 2
huntington 2
bicycl 2
ref 2
swamp 2
brace 2
actress 2
zhh 2
climb 2
kelli 2
makeamericagreatagain 2
fela 2
taxpay 2
reoffend 2
merci 2
typic 2
scarborough 2
geographi 2
kst 2
libtard 2
spell 2
becki 2
bewar 2
emoji 2
dive 2
hahahah 2
columbia 2
showdown 2
sustain 2
aimstagram 2
homeless 2
ton 2
karma 2
snag 2
southampton 2
mitt 2
kyu 2
needi 2
vlog 2
fundament 2
plead 2
dragon 2
rel 2
lowkey 2
aurangzeb 2
justiceforngatia 2
ken 2
smoki 2
centuri 2
cinemat 2
rear 2
unfold 2
jap 2
ngatia 2
partial 2
neil 2
deer 2
akbar 2
ss 2
dnce 2
panel 2
dg 2
shade 2
cred 2
isa 2
maken 2
honda 2
gcsebiolog 2
injur 2
pill 2
profus 2
assess 2
cough 2
underr 2
analyz 2
voiceov 2
deadliest 2
filter 2
dofe 2
buckingham 2
va 2
wearedof 2
adjust 2
happybirthday 2
trynna 2
advisori 2
brienn 2
warn 2
bi 2
airlin 2
bold 2
nervou 2
onceuponatim 2
om 2
cst 2
onrp 2
donor 2
lace 2
sch 2
moor 2
slam 2
putin 2
violat 2
sisterhttp 2
sung 2
skylin 2
tearshttp 2
jane 2
implement 2
itv 2
lmfaoo 2
nd 2
observ 2
ashley 2
photooftheday 2
outdoor 2
shiit 2
trio 2
yg 2
fir 2
bobbi 2
pardon 2
sgr 2
humanitarian 2
diptych 2
melanchol 2
icn 2
pharmaceut 2
thru 2
sleepi 2
karaok 2
desert 2
politico 2
didyouknow 2
liltunechi 2
gamer 2
mindset 2
compromis 2
gospel 2
tennesse 2
horror 2
recognit 2
feedback 2
barrier 2
agil 2
ibm 2
snow 2
sean 2
basel 2
acid 2
cap 2
hipster 2
carri 2
nbalotteri 2
dyk 2
woke 2
prop 2
corn 2
gore 2
agilecoach 2
bringbacknashvil 2
drinkingcontest 2
cctvssaraki 2
umar 2
hitler 2
simpson 2
dc 2
fork 2
fab 2
uniform 2
sc 2
intestin 2
partli 2
bra 2
phase 2
header 2
bradley 2
laura 2
fever 2
tortur 2
nottingham 2
uni 2
thao 2
konnect 2
yeri 2
northbound 2
followback 2
undyingsupport 2
gai 2
wiser 2
roh 2
popular 2
farcri 2
demolish 2
tourett 2
donkey 2
landau 2
mid 2
crochet 2
sketch 2
fatal 2
slander 2
mod 2
pjnet 2
sharehuman 2
nhl 2
cpl 2
patron 2
empower 2
harmon 2
xmen 2
freeway 2
bakeri 2
prompt 2
cum 2
saga 2
reward 2
tix 2
biotech 2
lgbt 2
thor 2
recreat 2
trick 2
pree 2
asf 2
tyrantbuhari 2
nnamdikanu 2
lamiyaslimani 2
freennamdikanu 2
bowl 2
rio 2
musichallofwb 2
bournemouth 2
amp 2
funniest 2
hormon 2
clip 2
pun 2
pose 2
mute 2
oversea 2
younger 2
badg 2
heheh 2
orprimari 2
marvel 2
lindsey 2
alot 2
republ 2
preschool 2
bangtan 2
rampag 2
belgium 2
pacif 2
similar 2
goodmorn 2
diri 2
realist 2
fandomart 2
emo 2
jangan 2
planner 2
selalu 2
ikut 2
kawan 2
com 2
sangat 2
shopper 2
hygien 2
hooti 2
demon 2
dunk 2
myungsoo 2
mata 2
luk 2
ri 2
interpret 2
shell 2
linkedin 2
mumblingnerd 2
slight 2
yeaa 2
booz 2
pad 2
gameofthron 2
thumb 2
recogn 2
wetheoth 2
actor 2
sushi 2
imran 2
qayyum 2
denli 2
tomiho 2
ghana 2
darren 2
meri 2
남우현 2
nvm 2
nkandla 2
milk 2
hobbi 2
venom 2
ed 2
joshua 2
narendra 2
mayhem 2
pebbl 2
dawg 2
sitsgirl 2
sw 2
thousand 2
mcdonald 2
townsend 2
occur 2
destruct 2
tighten 2
ecu 2
extend 2
boyz 2
jugg 2
knit 2
tail 2
mermaid 2
stabl 2
tension 2
poetri 2
tourist 2
jojo 2
romney 2
kygo 2
phillip 2
vastli 2
auto 2
endur 2
capit 2
fl 2
capitalist 2
yuh 2
combo 2
potato 2
deh 2
finer 2
jimmi 2
brick 2
majorlaz 2
ako 2
nam 2
belli 2
secretari 2
freakin 2
publicfunlov 2
associ 2
potter 2
bleacherreport 2
kingjam 2
ron 2
frivol 2
gqstyle 2
friendshttp 2
salari 2
comp 2
stan 2
dean 2
messeng 2
disrupt 2
iggi 2
trainer 2
azalea 2
mechan 2
taught 2
selfless 2
propaganda 2
bbcnew 2
bail 2
robin 2
gray 2
blackboard 2
earthquak 2
clarifi 2
listenl 2
techgeekrebel 2
toler 2
sketchfab 2
gateway 2
broadband 2
geni 2
grier 2
nash 2
ihop 2
motherfuck 2
smartphon 2
rural 2
pallet 2
tasti 2
eleg 2
hardli 2
feedli 2
watchdog 2
nina 2
miracl 2
illustr 2
mx 2
tudung 2
epl 2
colleagu 2
badli 2
backpack 2
bash 2
jack 2
thin 2
cardiac 2
august 2
holm 2
medicin 2
dayhttp 2
environ 2
greenvil 2
nigh 2
jtimberlak 2
anatomi 2
aum 2
nutrit 2
sm 2
fella 2
german 2
auxin 2
irwin 2
matchday 2
teasdal 2
hairstyl 2
hooligan 2
romania 2
meat 2
ct 2
gotham 2
galleri 2
rocki 2
colorado 2
follback 2
lacross 2
contracept 2
plw 2
michel 2
rockethub 2
expla 2
dinah 2
kiddo 2
rushal 2
yey 2
thoma 2
puff 2
michieeep 2
scenario 2
desegreg 2
feloni 2
shock 2
foam 2
baudri 2
prophet 2
uninsur 2
prolli 2
smallbiz 2
jfk 2
junction 2
amid 2
sneaker 2
intel 2
pim 2
tot 2
georgia 2
poke 2
baddest 2
stripe 2
ssnhqhttp 2
mentalhealth 2
kenneth 2
expir 2
sector 2
jonah 2
calum 2
lawn 2
teas 2
antidot 2
freetobem 2
hotrod 2
instafollow 2
weirdest 2
incid 2
echo 2
recycl 2
bound 2
luna 2
architectur 2
drone 2
orlean 2
rihanna 2
gandhi 2
symphoni 2
palestin 2
egypt 2
ring 2
dt 2
victori 2
billi 2
penguin 2
defend 2
skip 2
thenthingsonlygotwors 2
dig 2
q 2
bridg 2
purpos 2
enterpris 2
hmmmm 2
colerain 2
stood 2
stunt 2
salad 2
pollut 2
destin 2
mgt 2
delay 2
luca 2
shorti 2
eyesmil 2
friggin 2
bromanc 2
outing 2
metadata 2
accuraci 2
vice 2
librarian 2
harper 2
grasp 2
irrelev 2
burnt 2
auditorium 2
cell 2
edchat 2
bco 2
tipsmasuku 2
reader 2
motion 2
feast 2
beaten 2
afford 2
espargaro 2
ducati 2
climat 2
tank 2
truste 2
governor 2
padforg 2
error 2
throat 2
deadli 2
liverpool 2
goooood 2
lb 2
mahatma 2
havin 2
equal 2
crown 2
lem 2
timesofindia 2
subramanian 2
denmark 2
decatur 2
budak 2
convo 2
rubber 2
batteri 2
troyesivan 2
zuk 2
lenovo 2
loser 2
geek 2
redmi 2
comparison 2
yesss 2
pocso 2
notif 2
ani 2
bizarr 2
ke 2
overwatch 2
particularli 2
thigh 2
funer 2
purpleport 2
breach 2
sr 2
sanism 2
renew 2
tailgat 2
bapuji 2
celeb 2
merced 2
blast 2
healthcar 2
tfb 2
lemonad 2
she 2
cu 2
goddess 2
eleph 2
manner 2
automat 2
uh 2
calori 2
melon 2
cebu 2
shelter 2
sigh 2
correctli 2
odyssey 2
sterl 2
rashford 2
vegan 2
sorbet 2
soil 2
wana 2
reserv 2
sme 2
ach 2
livin 2
thuggish 2
juici 2
hip 2
sheriff 2
mon 2
affair 2
serp 2
philippin 2
babyariel 2
stunn 2
rogelio 2
biphobia 2
instrument 2
kung 2
chines 2
molest 2
snub 2
whe 2
freekaavan 2
tourism 2
zimin 2
hm 2
toy 2
violent 2
태양 2
embrac 2
palett 2
pan 2
mehttp 2
kpr 2
roll 2
museum 2
whenev 2
profit 2
heighten 2
mayor 2
luminos 2
hop 2
ruggish 2
parad 2
cm 2
baton 2
roug 2
reportedli 2
quintal 2
rice 2
mill 2
kd 2
panchayat 2
orient 2
habit 2
fc 2
categori 2
strand 2
helmet 2
sutera 2
staff 2
eras 2
faculti 2
confid 2
shilpitewari 2
notebook 2
bing 2
deleg 2
boko 2
haram 2
todo 2
nlex 2
feb 2
ymmfire 2
singh 2
ilysm 2
string 2
sadden 2
fck 2
fantasi 2
owl 2
revenu 2
dump 2
weibo 2
caretak 2
rogen 2
hitfix 2
legend 2
sore 2
stewart 2
ecf 2
freebet 2
hoax 2
toni 2
exhibitor 2
aka 2
smule 2
singkaraok 2
kickstart 2
caption 2
here 2
shawti 2
sehun 2
charisma 2
wentz 2
shambl 2
ano 2
bewitch 2
nurtur 2
alan 2
fleec 2
lust 2
runkeep 2
allerg 2
jeremi 2
gim 2
queso 2
emili 2
tidescantputjacksdown 2
topper 2
ilacad 2
jnu 2
circul 2
keepsmil 2
tthree 2
eskulinid 2
mbf 2
eskulinsquad 2
cole 2
starcinema 2
starmagicphil 2
carver 2
tacki 2
resort 2
abscbndotcom 2
dreamscapeph 2
thedailybeast 2
superb 2
bee 2
li 2
lavend 2
syndrom 2
caskettalway 2
km 2
lyon 2
oddli 2
castlefinal 2
mtv 2
cultiv 2
atlanta 2
globo 2
coup 2
viewer 2
smich 2
whether 2
restroom 2
hoot 2
concentr 2
gown 2
net 2
punk 2
blush 2
wade 2
rug 2
parklif 2
ami 2
rent 2
refer 2
cab 2
ili 2
youngba 2
codworldleagu 2
grandpa 2
serenad 2
silent 2
vulner 2
hd 2
glam 2
diss 2
zillow 2
fuel 2
paltri 2
tauru 2
nfl 2
logo 2
ouch 2
psycholog 2
constantli 2
hahahahahaha 2
sake 2
energ 2
be 2
hardcor 2
yesssss 2
captainamericacivilwar 2
mam 2
yorkshir 2
acquisit 2
tediou 2
ahh 2
nawaz 2
shaw 2
outlet 2
tux 2
tube 2
geniu 2
aaron 2
johnson 2
custodi 2
sue 2
bounc 2
seminar 2
fifti 2
admir 2
tsourunawayhttp 2
heal 2
perm 2
wound 2
dismiss 2
ez 2
shoutout 2
meal 2
chelsea 2
conclus 2
onerepubl 2
noisefrompavia 2
lego 2
bean 2
gang 2
nohttp 2
closest 2
wood 2
shini 2
chao 2
bath 2
unknown 2
peru 2
intens 2
grezzo 2
soundcloudhttp 2
biscuit 2
theo 2
malon 2
etf 2
hampton 2
react 2
woah 2
iain 2
ht 2
rehears 2
gossip 2
vagina 2
composit 2
dessert 2
makeasongwhit 2
anthonymarti 2
swach 2
loot 2
pdp 2
imo 2
babybandit 2
catapult 2
storylin 2
arkansa 2
trappin 2
jam 2
jpnadda 2
skirt 2
zeu 2
mumbo 2
badass 2
romant 2
ventur 2
wrestl 2
indic 2
multi 2
pamper 2
bbma 2
shortag 2
headstogeth 2
tukuza 2
djsadic 2
antondiema 2
ktntukuza 2
addit 2
unforgett 2
ttt 2
pidmusickenya 2
uzima 2
cutest 2
boat 2
michigan 2
urban 2
garybarlow 2
slim 2
gari 2
turnout 2
sting 2
commerc 2
hammer 2
menoshomofobiaemai 2
shark 2
tht 2
charter 2
jin 2
stayin 2
compil 2
spoke 2
rv 2
premierleagu 2
outag 2
wyd 2
gracia 2
giraff 2
newtgingrich 2
alec 2
mural 2
jo 2
metmuseum 2
charli 2
spark 2
southern 2
magconeurop 2
elferya 2
arctic 2
serrinha 2
nt 2
adorn 2
plug 2
unconsci 2
hachijo 2
mexican 2
ioc 2
licens 2
offens 2
dickhead 2
selfish 2
foiiow 2
shifti 2
lawsuit 2
cheat 2
seattl 2
desk 2
highli 2
hindu 2
goodi 2
microsoft 2
roomi 2
mang 2
congresssupportsterrorist 2
boo 2
reign 2
thay 2
calcium 2
understat 2
bautista 2
immigr 2
peep 2
waka 2
chain 2
russ 2
pt 2
vocabulari 2
nine 2
howard 2
inna 2
postseason 2
amber 2
hundr 2
precis 2
context 2
neverhilliari 2
purs 2
bud 2
nv 2
nawfr 2
babygirl 2
exact 2
measur 2
wat 2
pri 2
humor 2
bollywood 2
maestro 2
fave 2
relax 2
yeg 2
woozi 2
helen 2
racism 2
elat 2
garlic 2
opera 2
lg 2
creepi 2
ceremoni 2
flip 2
phoenix 2
motorcycl 2
greg 2
greek 2
raptor 2
scientif 2
wealth 2
distract 2
dasal 2
sesh 2
offseason 2
gene 2
clan 2
besid 2
throughout 2
vendor 2
manipul 2
inequ 2
ge 2
pisc 2
msm 2
waist 2
cupcak 2
secretli 2
bellend 2
unnecessari 2
useless 2
hacker 2
clap 2
coleen 2
sorrow 2
motorola 2
wordpress 2
sermon 2
lame 2
jasper 2
sussex 2
bandit 2
smaller 2
enemi 2
evid 2
awww 2
kenyan 2
sinner 2
ought 2
demonstr 2
retard 2
ahehsbdhdbhskanshsvzhzbsjx 2
fourth 2
silver 2
fulfil 2
colt 2
dug 2
detect 2
hrc 2
luo 2
anan 2
firefight 2
burger 2
await 2
bucket 2
nanay 2
zombi 2
minho 2
up 2
stat 2
heath 2
jonghyun 2
unlock 2
vampir 2
anxieti 2
wolv 2
sandwich 2
ukrain 2
smartest 2
advertis 2
staf 2
ikr 2
frack 2
explod 2
h 2
aviat 2
susan 2
nmapp 2
nh 2
vacanc 2
fellow 2
vancouv 2
seo 2
bin 2
bum 2
headphon 2
lineup 2
written 2
lefti 2
againhttp 2
attribut 2
wth 2
handmad 2
tha 2
wayn 2
accessori 2
noneoftheabov 2
downtown 2
missouri 2
raini 2
mo 2
juic 2
primaryday 2
align 2
discount 2
prevail 2
tiger 2
chose 2
grim 2
sbi 2
dunno 2
dreamt 2
raw 2
nordic 2
murray 2
foundat 2
fansign 2
bailey 2
acc 2
bkk 2
ithttp 2
fraudul 2
calend 2
haa 2
hama 2
braid 2
silli 2
taeyangi 2
metal 2
kira 2
raid 2
il 2
fastest 2
onehttp 2
bench 2
hal 2
dara 2
powder 2
rangi 2
bestow 2
quest 2
centurion 2
nowhttp 2
pat 2
there 2
ni 2
vcbuzz 2
gcse 2
tini 2
moh 2
nascar 2
jakarta 2
groom 2
dome 2
riley 2
warehous 2
caribbean 2
conquer 2
papa 2
shameless 2
yer 2
trilog 2
spill 2
pant 2
homework 2
eventbrit 2
africa 2
energyhttp 2
vixen 2
cge 2
myjap 2
pud 2
aqafrench 2
jess 2
taco 2
fighter 2
brawl 2
roof 2
ikon 2
predat 2
flat 2
glue 2
spike 2
pretend 2
ikoncert 2
replac 2
swell 2
outlook 2
voucher 2
slide 2
shanghai 2
pal 2
nuremberg 2
sooth 2
brook 2
lisicki 2
vinci 2
starwar 2
virginia 2
miser 2
porn 2
noon 2
empti 2
yobe 2
unread 2
stolen 2
diabet 2
mortgag 2
kno 2
bubbl 2
frustrat 2
bestteam 2
crisi 2
distanc 2
croissant 2
amnesti 2
sur 2
mehriban 2
moon 2
cf 2
administr 2
mutual 2
sheep 2
aliyeva 2
grace 2
rmciti 2
int 2
collaps 2
aprillajun 2
moreno 2
attain 2
souhilabenlachhab 2
margaret 2
port 2
pilot 2
ms 2
hardest 2
aur 2
rebirth 2
lift 2
jessi 2
teeth 2
peasant 2
unbeliev 2
lone 2
attempt 2
wah 2
halligan 2
sophia 1
monetari 1
incent 1
postur 1
goldberg 1
underst 1
allin 1
thedisciplemak 1
eukaryot 1
addictedzap 1
ohynod 1
ibelieveinyouseri 1
cepr 1
wholesal 1
susanwooln 1
greec 1
bicon 1
momodu 1
vox 1
writinghttp 1
pervers 1
makro 1
denismacshan 1
grenad 1
putu 1
ericahenderson 1
ggdavidjohnston 1
donbass 1
rebuild 1
foul 1
dinosour 1
depth 1
bronson 1
usmc 1
siwonlov 1
albin 1
oxygen 1
hunni 1
destini 1
elf 1
primal 1
kevinmd 1
conductor 1
sheldon 1
cuban 1
schengen 1
preacher 1
discret 1
econ 1
faceu 1
harroldnippl 1
cheekyhow 1
beverli 1
noisetrad 1
mcsmn 1
pathogen 1
dx 1
hcldr 1
chevi 1
hamradio 1
pinchot 1
arrl 1
hcsm 1
kiev 1
teenag 1
livebold 1
affabl 1
chaneyj 1
falsifi 1
displeas 1
lauraewag 1
cassandra 1
cent 1
thercn 1
ivokuleszayt 1
sibl 1
movessshttp 1
presidenti 1
alllongmula 1
jahahttp 1
allisonhttp 1
rcnfoundationhttp 1
ceil 1
monstax 1
divid 1
pleaseee 1
yeeyi 1
nanamuitoloko 1
suzuyareixiii 1
uruguay 1
lamborghini 1
tonyargosi 1
humanli 1
advoc 1
crib 1
latin 1
merriam 1
ilyyyyyyi 1
porschedesign 1
porscheclub 1
porschesport 1
autolik 1
intactfx 1
porsch 1
amwrit 1
lgbti 1
proudli 1
boutwel 1
porscherussia 1
mwi 1
proi 1
rajonrondo 1
swipe 1
pftcomment 1
staffer 1
teri 1
pardonmytak 1
lancast 1
bookmarkxpress 1
elearn 1
ccstateofmind 1
friendliest 1
heartless 1
mocha 1
evan 1
trp 1
substanc 1
updatehttp 1
cme 1
persecut 1
halesowen 1
ripcitymorn 1
accident 1
peaceloverescu 1
iam 1
ittakesavillag 1
gameinsight 1
unreal 1
omen 1
woo 1
themeatli 1
theflash 1
paradis 1
travelinghttp 1
portal 1
thecloudchurchoc 1
rickgodwin 1
mitochondria 1
rushin 1
mitchellvii 1
ti 1
carminezozzora 1
respectthemandatehttp 1
ggreenwald 1
algorithm 1
mobilefriendli 1
shitbag 1
hslaurent 1
soundtrack 1
greenwald 1
ripen 1
desmallbiz 1
rbaralt 1
glenn 1
onlinelearn 1
teuk 1
scordar 1
pappa 1
cimorelli 1
werid 1
prezbo 1
girlhttp 1
womeninstem 1
laughabl 1
wv 1
certainti 1
reynoldsburg 1
nanci 1
uplift 1
nude 1
pocha 1
panjabi 1
yehi 1
accommod 1
tylkoztobą 1
yoohoo 1
ashleigh 1
remedi 1
supress 1
disclosur 1
repossess 1
slugfest 1
contiki 1
groceri 1
walmart 1
agar 1
aqasociolog 1
piti 1
physicianassist 1
aapahod 1
underneath 1
amaworkshop 1
contentintellig 1
guidelin 1
khurrramak 1
hod 1
contentanalyt 1
pais 1
dond 1
hicieron 1
elud 1
bynr 1
farcryprim 1
zeitgeistzero 1
complianc 1
minimalist 1
lipsi 1
tomlinson 1
interior 1
lotti 1
whoooo 1
iartg 1
yp 1
offleezyhttp 1
properlyhttp 1
inspirationshttp 1
apologis 1
lallana 1
tango 1
inconveni 1
piper 1
dla 1
stereotyp 1
johannahdarlinghttp 1
lettin 1
sentiment 1
bookreview 1
twist 1
proper 1
thirstyhttp 1
pnr 1
expans 1
vow 1
drmbhopal 1
suspens 1
aapa 1
lasamazona 1
renecasado 1
usfw 1
repedroyc 1
chronixx 1
bttrcrmbakeshop 1
mixx 1
josephmorgan 1
firepool 1
proven 1
ayosmonica 1
ytube 1
kino 1
heist 1
endang 1
fucken 1
draymondgreen 1
ebola 1
neanderth 1
chronixxmus 1
klalovelivemus 1
giroditalia 1
publisherswkli 1
tappa 1
reluct 1
exe 1
behav 1
mybigfatgreekparti 1
weger 1
jacki 1
peeradvantag 1
tacobel 1
cinnamon 1
enovaaw 1
jaeemoos 1
smm 1
americano 1
jihad 1
bespok 1
axnindia 1
littttt 1
greathttp 1
sand 1
lmaooo 1
haunt 1
legaci 1
sideboard 1
piroca 1
getweirdtourjapan 1
oak 1
sweetest 1
bish 1
pffffffffffffft 1
villain 1
paneraprob 1
horni 1
jama 1
lagoon 1
carlton 1
atlanti 1
shelv 1
lm 1
constantin 1
recus 1
scotu 1
ash 1
arthur 1
concoct 1
roy 1
bencic 1
esl 1
smell 1
jigsiswrit 1
looool 1
highschool 1
poconoraceway 1
groov 1
sickhttp 1
femim 1
vitamin 1
blvd 1
yeke 1
beri 1
comcast 1
skynew 1
abroad 1
budgetsurplu 1
barunsobtisay 1
sicken 1
billclinton 1
calderston 1
rcrrace 1
gemini 1
tydillon 1
fishfact 1
mini 1
omega 1
teamgemini 1
hemant 1
shahnawazk 1
oili 1
effortless 1
geminisquad 1
readygoart 1
pavilion 1
layp 1
axeljob 1
kingsman 1
youtbrsnow 1
apush 1
stevalpuma 1
sentenc 1
keller 1
frstella 1
unjust 1
traumat 1
incarcer 1
impt 1
cjreform 1
bili 1
mgedit 1
patisseur 1
roster 1
rtng 1
gentlemen 1
oliverhttp 1
stepmoth 1
internethttp 1
bmack 1
birmingham 1
aldub 1
aay 1
kam 1
par 1
gaya 1
choicerbhiphopartist 1
stubborn 1
geminigirl 1
phosphor 1
referr 1
denni 1
assadiqulhaq 1
crm 1
csn 1
constabulari 1
oka 1
vestadu 1
errani 1
retrac 1
dailyboom 1
pavlyuchenkova 1
jamilahcorbitt 1
adh 1
karnataka 1
gamergatesurvivedy 1
luhan 1
cl 1
susul 1
dmv 1
numb 1
bacsinszki 1
earnshawsfc 1
heavi 1
tbt 1
checkbook 1
arrang 1
wakefield 1
atv 1
oxford 1
ambit 1
widget 1
hindsight 1
vesadu 1
gameg 1
crumb 1
dublinjeromeh 1
bsg 1
owen 1
phillkross 1
regim 1
donriddellcnn 1
beautifulllll 1
boob 1
huddersfield 1
accolad 1
firestorm 1
shahidkapoor 1
matcheshttp 1
lax 1
esat 1
mamagonecrazyah 1
lifetheif 1
solon 1
rabbleboy 1
scumbag 1
temper 1
puppilovley 1
stumbl 1
askdocg 1
cassi 1
goofi 1
edivvoffici 1
dyinnggggg 1
ofcours 1
semmmmm 1
niculescu 1
chipzdarski 1
sammcilveen 1
archiecom 1
moonshin 1
redemptionni 1
darksid 1
fiasco 1
stepfath 1
leeabbamont 1
abbamont 1
wkf 1
achraf 1
ouchen 1
opportunist 1
lando 1
lmfaoooo 1
marthavouchuk 1
peacetrain 1
whitewardog 1
jluccier 1
victorpoirin 1
luizalovesartg 1
mclenaghanjohn 1
veer 1
layout 1
backward 1
mikeettl 1
brainweek 1
modular 1
handbaglight 1
handbag 1
attende 1
tortois 1
hatchl 1
dunn 1
fruitcak 1
jeremycorbyn 1
lvghttp 1
halftim 1
napishtim 1
vi 1
ys 1
yeaaaahh 1
obituari 1
heatwav 1
cinema 1
hield 1
hectar 1
kemp 1
pyaari 1
adforumco 1
spur 1
jumper 1
brantdaugherti 1
birthdat 1
ideal 1
bamp 1
aacpsawesom 1
supt 1
aacountyschool 1
ridley 1
shadowhunterschat 1
ferment 1
jfb 1
jain 1
committ 1
pde 1
pnehrer 1
dawgg 1
winn 1
louiss 1
imf 1
bogota 1
el 1
ralph 1
kilburngael 1
sudden 1
hail 1
amen 1
patrimoni 1
pandora 1
ginuwin 1
saltyspiltoon 1
src 1
tode 1
tarnung 1
süßvieh 1
rind 1
mcowlfac 1
eul 1
baum 1
joytechi 1
rupaul 1
radiant 1
engagementr 1
wakeandpol 1
relianc 1
dimpl 1
keepitintheground 1
portug 1
kurkureinmumbai 1
mitron 1
chaiy 1
din 1
kitn 1
sonakshisinha 1
ivi 1
poledancefit 1
cavsraptor 1
att 1
surprisegift 1
millenniumfalcon 1
thasiunit 1
kufmdriv 1
thika 1
largofl 1
abcactionnew 1
largo 1
crabbi 1
cere 1
semisquar 1
edt 1
slur 1
straighten 1
deadass 1
gaza 1
sankaran 1
krishnan 1
ouredg 1
playkop 1
biketoworkday 1
cyclist 1
gvftma 1
spaceghost 1
johnnyquest 1
hannbarbera 1
futurequest 1
paranoooooid 1
levit 1
loooooooooool 1
saxophon 1
geniecast 1
cannabi 1
examin 1
firearm 1
samp 1
ol 1
inflict 1
sobrang 1
racial 1
consensu 1
realtalkk 1
sweater 1
ladl 1
programm 1
avtweepshttp 1
onion 1
pregam 1
pasrah 1
fmosaka 1
fmo 1
ogermann 1
clau 1
perez 1
stoneman 1
ov 1
durvslanc 1
llc 1
squarepoint 1
speek 1
carrier 1
netposit 1
greensport 1
inpactnow 1
grasso 1
custo 1
hull 1
steadi 1
pattylavida 1
leemitag 1
thelpfn 1
npr 1
pell 1
ktla 1
slideshow 1
chloe 1
currebci 1
ytia 1
assert 1
pmeysman 1
umpir 1
southshieldsfc 1
dreamgoal 1
budweiseruk 1
oneself 1
deb 1
genderequ 1
iebc 1
anglesey 1
usd 1
nicga 1
gbp 1
ismail 1
azman 1
cimb 1
busk 1
warr 1
noriwch 1
sprowston 1
stmarysgrov 1
kitten 1
lsschttp 1
russellcrow 1
dare 1
loudinknino 1
sonamakapoor 1
neglect 1
iamjojo 1
singlehttp 1
awkwardli 1
yoplait 1
cancersupport 1
uppermil 1
reclamationroom 1
seemingli 1
frank 1
squeal 1
tweetit 1
overview 1
dp 1
fo 1
hdmi 1
displayport 1
digg 1
beşiktaş 1
resolv 1
mario 1
deludedbrendan 1
thugger 1
wavefront 1
kosic 1
xyz 1
morg 1
yawhttp 1
sight 1
andreszymanowicz 1
skyrocket 1
naiderkynspear 1
drown 1
toothbrush 1
distracteddoctor 1
stack 1
pronounc 1
nashua 1
summerread 1
kickoff 1
motownphilli 1
fame 1
chara 1
yuk 1
unam 1
punch 1
herdsmen 1
fulani 1
lionsgatetv 1
nashiesunit 1
nashcrash 1
nashi 1
curvett 1
broderiedart 1
shitti 1
silenc 1
juda 1
disrespect 1
rin 1
kayo 1
wayman 1
genevaopen 1
cogswellcoggi 1
glasgow 1
weddingdressshop 1
fittofight 1
bemorehuman 1
kangana 1
missmalini 1
incubu 1
mapmyrid 1
wawrinka 1
bellucci 1
kukushkin 1
unapologet 1
tisdal 1
igh 1
rack 1
hubbi 1
newberi 1
asco 1
gigant 1
territori 1
unfamiliar 1
opendotlab 1
ehr 1
tippachat 1
breakout 1
trumph 1
pixel 1
bff 1
bookriot 1
gilli 1
jenksp 1
derekhough 1
xxxxx 1
pleat 1
plain 1
ger 1
coolar 1
chiva 1
busin 1
indm 1
highsnobieti 1
legitsol 1
thesolescoop 1
sellkickssunday 1
iamdjminist 1
dashencoolfm 1
roadshowkano 1
turntuptuesday 1
wandeco 1
djspinal 1
moni 1
gro 1
conspir 1
pear 1
drew 1
prescript 1
brigg 1
aah 1
lovren 1
cider 1
scalia 1
ali 1
shoossshhh 1
nuthin 1
inspect 1
reagent 1
wilder 1
wineinthewood 1
funk 1
collier 1
vanessa 1
feelingero 1
meltdownhttp 1
dortmund 1
newcastlerac 1
sf 1
nr 1
muntadab 1
tawdeea 1
newcastl 1
wholeblend 1
garnierusa 1
pointhttp 1
waaaaayyy 1
dashawnnnnhttp 1
ynwa 1
rivercityott 1
gdgeek 1
higher 1
imho 1
kaavan 1
tweetsheet 1
wap 1
fetti 1
deodor 1
lime 1
materi 1
sheet 1
employeeengag 1
fournier 1
goin 1
nationalangelcap 1
brightsparkvc 1
angelinvest 1
pei 1
rubinreport 1
gayer 1
spam 1
tremend 1
dept 1
buh 1
croatia 1
technic 1
peal 1
vincent 1
norman 1
tonyloyd 1
islamabadzoo 1
thinker 1
christina 1
mida 1
teamcap 1
chequ 1
chkppm 1
rayong 1
same 1
kohsam 1
prangsptgrph 1
cheez 1
amar 1
edgov 1
retire 1
aemadvisor 1
wavi 1
aguilera 1
wayi 1
brawn 1
cartographi 1
chorizo 1
droll 1
hyolyn 1
kinguin 1
martinez 1
melani 1
heaux 1
meanwhil 1
nk 1
neverrr 1
kupanda 1
dexterfowl 1
disadvantag 1
yoojung 1
doyeon 1
eyewash 1
mallya 1
livewithkelli 1
baldwin 1
worldhypertensionday 1
jillianhttp 1
funnier 1
wayyyyy 1
melvindal 1
harvard 1
herowarz 1
trinidad 1
smoothi 1
pasimphiw 1
fukin 1
dnt 1
repaint 1
coney 1
intriguevega 1
stelladotstyl 1
billcassidi 1
stella 1
rubik 1
antisoci 1
cara 1
tobago 1
walai 1
chek 1
intim 1
onew 1
numulticultur 1
gill 1
overcast 1
underdog 1
yanno 1
vent 1
fournett 1
leonard 1
alonehttp 1
thanksgiv 1
skysport 1
yougowego 1
dexter 1
benjeal 1
monolight 1
siro 1
broncolor 1
petapixel 1
isorait 1
mmmmhh 1
quizz 1
iniciarses 1
philadelphia 1
termin 1
kinghttp 1
hoshi 1
experientialmarket 1
improb 1
awf 1
calli 1
webfest 1
austin 1
pitchforkpari 1
ardent 1
topresum 1
workforc 1
loga 1
tso 1
bub 1
tsa 1
ujfir 1
riphttp 1
umcgc 1
dyck 1
bishop 1
incompat 1
truthhttp 1
anit 1
hav 1
talm 1
charmayn 1
wallpap 1
wellb 1
daisyhttp 1
whoopsi 1
mmxl 1
awper 1
texasdemocrat 1
alberto 1
java 1
dissert 1
anyar 1
hugoaf 1
wizard 1
lovegood 1
kelsey 1
bureaucrat 1
affh 1
auratoovici 1
contentwritingchat 1
blab 1
morgen 1
assuag 1
guten 1
grip 1
lawwel 1
brendanrodg 1
tshimanga 1
jordi 1
nebrasketbal 1
strategist 1
fedder 1
fecker 1
feckereamoin 1
burden 1
costumehttp 1
soviet 1
inboundag 1
lunaperla 1
syntax 1
grammar 1
variat 1
inadequ 1
apartheid 1
kulirobert 1
unsaf 1
oilandgasuk 1
phuck 1
wenowlovesnak 1
bootlick 1
paperwork 1
newli 1
edtech 1
violetchachki 1
ferguson 1
craigyferg 1
lmaoo 1
thoughtsondevelop 1
differenti 1
endless 1
splendid 1
clevelandgolf 1
carton 1
playirelandsweep 1
vhclhttp 1
spree 1
punctuat 1
intensifi 1
schneiderlin 1
datsik 1
puppet 1
indirect 1
theexorcist 1
marina 1
extern 1
shuttl 1
slanderoffici 1
thebasscrook 1
cookiemonstadub 1
doctorpcircu 1
brosafari 1
funtcaseuk 1
dartmoor 1
darmian 1
turnt 1
uzi 1
reborn 1
creation 1
aff 1
grudg 1
eua 1
heritag 1
hispan 1
wrjalmond 1
dismantl 1
carrick 1
javascript 1
webdesign 1
canhttp 1
reflexgamingltd 1
sholl 1
genderdata 1
vivianhunt 1
genderpar 1
lever 1
unpaid 1
meticul 1
lazysist 1
lazygeniu 1
momhood 1
unprepar 1
hiitskendra 1
resign 1
fing 1
reunit 1
stagsdub 1
downstair 1
elliott 1
rori 1
comedycrunch 1
preced 1
certainli 1
mila 1
erinbilbray 1
customconfig 1
coven 1
dystopia 1
senpai 1
monitor 1
repositori 1
unitedrelay 1
jughead 1
lml 1
otha 1
rondo 1
rajon 1
nwt 1
sissoko 1
moussa 1
freakn 1
upton 1
glove 1
teamr 1
mcrobert 1
melbaek 1
mensfit 1
adorablehttp 1
threw 1
farewel 1
heartfelt 1
fenella 1
selfracingcar 1
velodynelidar 1
auvsishow 1
driverlesscar 1
autonomousdriv 1
automot 1
gbo 1
hilton 1
we 1
waitlist 1
bonnydoonvineyd 1
doon 1
imdanielpadilla 1
neeed 1
har 1
chaneliman 1
editori 1
iman 1
mfrazz 1
submarin 1
leas 1
transmiss 1
racist 1
fijian 1
confeder 1
cisco 1
frontier 1
morrow 1
moniqu 1
cdnew 1
ycot 1
defi 1
venezuelan 1
lashcondolaw 1
harass 1
unsuccess 1
stir 1
implant 1
denodriz 1
byhttp 1
mowestmus 1
chess 1
kayvokforc 1
radiomaisha 1
palumbo 1
sharma 1
kapil 1
amritsar 1
tn 1
murfreesboro 1
granni 1
ㅠㅠ 1
unfollow 1
ross 1
ewww 1
norwaynationalday 1
haug 1
olav 1
miracul 1
skimp 1
det 1
servicenow 1
fatter 1
lesnar 1
brock 1
oppon 1
savvi 1
landsend 1
sharethelov 1
bearer 1
pen 1
hog 1
iowahawkblog 1
proposalhttp 1
poorcustomerservic 1
coverlett 1
davao 1
scrambl 1
similarli 1
fini 1
quand 1
ce 1
niña 1
wmo 1
eva 1
annyeonghaseyo 1
suburb 1
maiysha 1
badu 1
erykah 1
gimmick 1
label 1
gmo 1
websyarn 1
loom 1
sazar 1
lauder 1
wld 1
sensibl 1
repel 1
horn 1
graph 1
astronezia 1
gb 1
gg 1
enji 1
jkl 1
brilliancehttp 1
sheer 1
portfolio 1
passiv 1
groan 1
pesummit 1
incap 1
iowa 1
harmonica 1
holtz 1
washingtondcaia 1
hybrid 1
aiadctech 1
flee 1
zampella 1
schenectadi 1
creek 1
jodha 1
maryland 1
faust 1
esté 1
bac 1
darealjayslim 1
briton 1
arkonvp 1
beyourself 1
arr 1
writ 1
calypso 1
ghayal 1
deol 1
ipbil 1
yulsic 1
closet 1
bristolrov 1
loker 1
wrk 1
arkonkorea 1
playingtowin 1
uniofeastanglia 1
unionuea 1
waterfrontuea 1
norwich 1
rumjack 1
crinkl 1
gameofthroneshttp 1
tormund 1
dani 1
doin 1
newmarket 1
yopickless 1
alpin 1
richkid 1
mainam 1
datamosh 1
embryo 1
kobe 1
taaangleeeesss 1
tangl 1
lastturnupparti 1
newcountryuk 1
testingtuesday 1
therapi 1
anticoagul 1
lumaba 1
kesa 1
ma 1
fabul 1
spontan 1
faithfulhttp 1
displac 1
milkshak 1
yabookpromo 1
segreg 1
regardshttp 1
pillow 1
duvet 1
pontefract 1
henrysbrasseri 1
carveri 1
haryanapcc 1
sukhna 1
blimey 1
chandigarh 1
margarita 1
francisco 1
ceausescu 1
nightmarish 1
bernardo 1
lola 1
yaya 1
tong 1
nakakami 1
amcmanu 1
notonlcstrik 1
dialogu 1
durham 1
diggerland 1
allhiphop 1
burnholm 1
cmon 1
tallytuesday 1
capac 1
paraxylen 1
pennywellfarm 1
hahahttp 1
groundzerocr 1
fulfordscsport 1
tuesnewshttp 1
rnatweet 1
cornwal 1
cancun 1
suitcas 1
refuge 1
gresham 1
glo 1
ryanstruck 1
njallday 1
propheticbootcamp 1
realm 1
wifi 1
cca 1
ahahahhah 1
pdxtraffic 1
baranczyk 1
eb 1
burnsid 1
goos 1
chicagocouncil 1
belov 1
bel 1
yarmoshyna 1
genom 1
venturecapit 1
vc 1
economist 1
era 1
tisoy 1
dogma 1
dreamwork 1
marikina 1
randomli 1
mancrushmonday 1
uunnff 1
nlm 1
outnumb 1
garda 1
blumarin 1
chopard 1
tanc 1
itsthelittleth 1
ottawa 1
balmi 1
anto 1
cfoalbaasturia 1
typo 1
hiati 1
rml 1
psa 1
qm 1
spnfamili 1
jaredpadalecki 1
wyliephenix 1
yat 1
aporlaundecima 1
realmadrid 1
cambodia 1
hanuman 1
pleez 1
blowin 1
rainf 1
protestorshttp 1
boneshttp 1
bnufilmaward 1
dccomic 1
esteem 1
crackett 1
charlott 1
charliecrackett 1
tanghbigloc 1
santanacarlo 1
salvador 1
blind 1
doj 1
gsa 1
contractor 1
dcunivers 1
descript 1
bomer 1
vitalyorkc 1
hockey 1
junior 1
hirugashi 1
brethhhttp 1
catnt 1
solarpow 1
kinkilig 1
awwww 1
whenevehttp 1
impati 1
doeee 1
anton 1
friendzon 1
wildin 1
austria 1
occup 1
kirkspano 1
qgi 1
passag 1
parenthood 1
parabl 1
eobituari 1
rochelleayt 1
sensori 1
propriocept 1
vestibular 1
inlov 1
mainten 1
bewing 1
omar 1
jso 1
mug 1
tydollasign 1
brendon 1
pipe 1
lifeee 1
cau 1
wii 1
sheik 1
saiki 1
lurr 1
fad 1
expo 1
lvl 1
therapist 1
halo 1
papercraft 1
layin 1
length 1
snake 1
katyinindi 1
nahbabynah 1
chucknelli 1
robotpallet 1
marinaexperi 1
baat 1
sultan 1
beingsalmankhan 1
telegram 1
wayhttp 1
usta 1
starcostum 1
swisha 1
glover 1
corey 1
orianthi 1
sambora 1
richi 1
itssamcollin 1
ammunit 1
workmat 1
trailheadx 1
scrim 1
pu 1
dbnewsjourn 1
randi 1
westminst 1
playin 1
wick 1
databu 1
weinman 1
topaz 1
bmo 1
itlif 1
bigfreediaqueendiva 1
ralston 1
yourcarwillneverlookthisfli 1
oldskool 1
cutlass 1
gdl 1
peg 1
troublemak 1
rebel 1
snyder 1
estim 1
treasuri 1
mercado 1
jennylyn 1
jenga 1
leaxi 1
diaryentri 1
diannaagron 1
adamsandl 1
ridiculoussix 1
dudz 1
canton 1
pancit 1
bpolit 1
uncertain 1
plum 1
marjori 1
sharmat 1
household 1
bureaucraci 1
tnmmusicfam 1
timeless 1
musicfam 1
tnm 1
babybrand 1
hannah 1
atlasobscura 1
movistar 1
sprint 1
honesti 1
romanovna 1
georgiana 1
impression 1
brutal 1
curti 1
hologram 1
ctv 1
filmmak 1
bresson 1
cattl 1
enugu 1
sweetpikin 1
congr 1
almighti 1
wide 1
repent 1
despair 1
bog 1
broadfound 1
tenant 1
tenanc 1
utilis 1
adoringtiffani 1
buffett 1
warren 1
candl 1
sengineland 1
thang 1
damienndrix 1
xnicoleanistonx 1
ivo 1
eastsid 1
saratoga 1
beech 1
beechboy 1
haysss 1
kentuckyforberni 1
oregonforberni 1
ptfoo 1
yeon 1
baek 1
hitter 1
muse 1
teamkush 1
bread 1
mahila 1
bhartiya 1
abid 1
searshom 1
renov 1
importantli 1
chanhyuk 1
netizen 1
kehlani 1
boil 1
suicid 1
tp 1
kalaba 1
rainford 1
guardianeco 1
blackspot 1
cherishingㅠㅠ 1
sane 1
lauryn 1
christiand 1
breakin 1
fallin 1
karenmageenysut 1
nysut 1
westsenecacsd 1
newton 1
kate 1
westsenecata 1
rolando 1
nalc 1
pewdiepi 1
asmrdarl 1
muff 1
twiddl 1
therapeut 1
idfwu 1
phoney 1
presstitut 1
torontolibrari 1
allergi 1
unplan 1
beatmak 1
hmu 1
cmichaelsbook 1
crunch 1
ak 1
hatter 1
resum 1
certifi 1
hoshihttp 1
shook 1
taeil 1
johnil 1
barnwel 1
olb 1
packer 1
mismanag 1
kesseljunki 1
starwarsbloodlin 1
oooh 1
gulf 1
distributor 1
teamwork 1
seok 1
hong 1
onitsuka 1
gw 1
uniqlo 1
tanaka 1
colormecourtney 1
risotto 1
octopu 1
mofo 1
dele 1
craigslist 1
notori 1
sylvanlearn 1
databas 1
fathippyrecord 1
colinclyn 1
clyne 1
inadvert 1
cia 1
coolhttp 1
mtvpopchamp 1
quinz 1
unrequit 1
knoooo 1
rsvp 1
stempowerkid 1
iconnectim 1
backfir 1
purposetourmontr 1
yaddl 1
faustina 1
watertown 1
loool 1
mrtzxcv 1
njprimari 1
patchriach 1
leaft 1
canyon 1
nidderdaleaonb 1
rambl 1
nationalwalkingmonth 1
dismay 1
elliot 1
odditi 1
nspire 1
conway 1
bretman 1
vinceegoww 1
fafa 1
thekapilsharmashow 1
dwaynebravo 1
raveenatandon 1
diy 1
tiff 1
ioi 1
theolog 1
philosophi 1
inbox 1
mattar 1
saunder 1
merl 1
mikey 1
wildforthenight 1
schim 1
grind 1
interrupt 1
aggress 1
waiter 1
dion 1
shoulda 1
landon 1
freejeremynet 1
bhopal 1
dowchem 1
outlookconway 1
tommymosley 1
cium 1
nicholtown 1
roddyakhm 1
glidewel 1
tightli 1
우현아사랑해 1
sandcastl 1
amnestyhttp 1
biafra 1
mbuhari 1
chaze 1
minerva 1
meh 1
knight 1
ppv 1
asylum 1
cosproject 1
proprieti 1
rosenpeni 1
fletch 1
obnoxi 1
popcorn 1
crispi 1
hoop 1
sponsorship 1
hornet 1
newcollect 1
comingsoon 1
camici 1
aa 1
divert 1
collin 1
misha 1
thelastpoetsnyc 1
nephilimupd 1
egbegb 1
seun 1
mintu 1
honeydew 1
sword 1
cnbc 1
stylinson 1
callum 1
coron 1
der 1
suffic 1
frampol 1
fergi 1
ferg 1
humid 1
temperatur 1
infin 1
blank 1
hannieryann 1
sarrahwillliam 1
dionedelsignor 1
txt 1
lich 1
kojima 1
purifi 1
cleans 1
keeli 1
ukaveri 1
michelethwait 1
undertak 1
brailsford 1
inigo 1
ニットジレ 1
nyro 1
frighten 1
samanthabeehttp 1
dvsndvsn 1
vapefam 1
ecig 1
vapefamili 1
vapelif 1
vape 1
sigelei 1
moschino 1
concuss 1
ヴァンドゥーオクトーブル 1
ジレ 1
sarriegui 1
マストバイ 1
gillet 1
wcelaw 1
fisheriesact 1
hdbjajabvfvcckksnsn 1
tomorow 1
dawn 1
maddthelin 1
needless 1
prophetcarn 1
depop 1
landa 1
mikel 1
fabol 1
cerminhttp 1
sinus 1
juz 1
fliibi 1
seali 1
sjtwomey 1
harlequin 1
amishbuggi 1
slimjim 1
despis 1
zodiac 1
billmah 1
jeannieher 1
drugtest 1
saigo 1
kento 1
kaku 1
賀来賢人 1
architecturehttp 1
intric 1
swarm 1
wheez 1
yaaa 1
mn 1
pheng 1
ly 1
oilpric 1
algeria 1
tehran 1
fanshttp 1
philaunion 1
gerrard 1
juma 1
southwest 1
girlyyi 1
evilboob 1
ln 1
histiocyt 1
benign 1
rebat 1
richardgudnitz 1
fafsa 1
wfminiholland 1
menac 1
sensic 1
choir 1
bhramabul 1
fifteen 1
ambul 1
tvo 1
sandal 1
sporti 1
opinionhttp 1
nowaday 1
rooki 1
dao 1
copenhagenfashionsummit 1
wage 1
cherps 1
danni 1
resent 1
nerd 1
aspect 1
saver 1
aerial 1
momentum 1
triangl 1
bullish 1
trace 1
jackdoolan 1
patbaladi 1
marcella 1
heap 1
extent 1
deterior 1
teflon 1
somewhat 1
heckl 1
oregonprimari 1
kentuckyprimari 1
restart 1
fairfield 1
comin 1
puig 1
upfront 1
brynnbondyy 1
schoolofskil 1
tableau 1
carson 1
fanart 1
kbee 1
divalici 1
mariahcarey 1
essencefest 1
wearabletech 1
parkinson 1
tremor 1
upandup 1
moa 1
vbye 1
hercul 1
widen 1
gase 1
sugg 1
enpt 1
den 1
bak 1
ws 1
nla 1
pictori 1
ung 1
rmembr 1
usabl 1
shelf 1
tull 1
mount 1
kodak 1
detent 1
falkirk 1
mathesonmichael 1
pinkfloyd 1
atheistlivesmatt 1
atheism 1
rickardson 1
atheismnew 1
daylightath 1
explan 1
siniii 1
bbi 1
strap 1
mazemb 1
jerri 1
gana 1
projector 1
woohhh 1
yan 1
harmoneh 1
britax 1
isofix 1
britaxuk 1
dropouthillari 1
confront 1
gathercont 1
custodian 1
theresa 1
morningzoo 1
getitin 1
noteworthi 1
reckon 1
itunespodcast 1
olivemagazin 1
zumahttp 1
exoskeleton 1
hyundai 1
outstay 1
wwyd 1
eidet 1
cabl 1
easter 1
makan 1
johnwal 1
flock 1
soar 1
hazama 1
makanan 1
averi 1
msushahalam 1
addedscientif 1
fusion 1
louder 1
disagr 1
amidst 1
clair 1
nicolasturgeon 1
te 1
corp 1
seriousinquiriesonli 1
coverag 1
cdneconhttp 1
brava 1
ident 1
incorpor 1
difficulti 1
cappellini 1
fabio 1
slackhq 1
thermostat 1
amsterdam 1
exorcis 1
overwhelmingli 1
menon 1
goutham 1
karthik 1
xing 1
kri 1
scatterbrain 1
plight 1
intun 1
mdm 1
meraki 1
ego 1
fortun 1
magreview 1
balak 1
kaleb 1
hollywood 1
comedown 1
tamara 1
vn 1
creator 1
enrag 1
ninja 1
lilkeshoffici 1
skibi 1
moreshttp 1
rainha 1
inner 1
ystl 1
onia 1
kandahar 1
quo 1
quid 1
deport 1
prosecut 1
childcar 1
preseason 1
uf 1
falter 1
cybersecur 1
happygayoonday 1
orgreavejustic 1
otjc 1
tame 1
configur 1
adel 1
dumbest 1
wordpressdotcom 1
boomer 1
millenni 1
hah 1
kazahkstan 1
aldajj 1
kudo 1
givecontinuum 1
fright 1
tmlt 1
usconsulatekhi 1
orgreav 1
sukkur 1
inter 1
strateg 1
deploy 1
missil 1
idki 1
mawrahocan 1
sanamterikasam 1
mcr 1
heaton 1
fallow 1
platt 1
inquiri 1
jassay 1
nikkohttp 1
maybachmusicgrp 1
digitalentrepreneur 1
speechless 1
alta 1
emojin 1
neithan 1
globalfac 1
afteral 1
aishwaryarai 1
tennessean 1
zasiiier 1
lyfe 1
karli 1
coulda 1
contradict 1
styledotm 1
shahnazhusain 1
sweeten 1
hatiku 1
singgah 1
pernah 1
uv 1
pemberton 1
camphalfblood 1
summon 1
hazel 1
thepowerofun 1
techi 1
bcnueddept 1
abdic 1
facial 1
ballandbo 1
copyblogg 1
flexibl 1
format 1
govthttp 1
charlottetown 1
tvvin 1
sharna 1
jsut 1
hagu 1
palmyra 1
element 1
immun 1
reprogram 1
speci 1
harmless 1
spider 1
ccnmlife 1
ccnm 1
barbecu 1
woodward 1
greenspan 1
apink 1
jacksonvil 1
strawter 1
oneworldobservatori 1
observatori 1
cbjcfopanel 1
lankan 1
banga 1
zillion 1
disk 1
floppi 1
chacha 1
sholder 1
retailnew 1
bankruptci 1
srsli 1
asdkzjsdjsna 1
margaaa 1
lblogger 1
neblogg 1
tynemthfoodfest 1
tldsboyap 1
georgian 1
kodi 1
forwansapanataym 1
jobhttp 1
georgieva 1
bulgaria 1
wheelertsn 1
loop 1
youuu 1
romeo 1
ahhh 1
viva 1
instagramisbetterthanfb 1
overpost 1
godhttp 1
lolon 1
seungkwan 1
waaaait 1
nadya 1
puriti 1
lovato 1
demi 1
lovey 1
pearl 1
oxid 1
parton 1
closur 1
retailtech 1
mdt 1
cdt 1
fest 1
riot 1
juanfran 1
carvaj 1
omit 1
bellerin 1
coldbandzna 1
boomin 1
indiebrew 1
brew 1
priincedivaio 1
ronbosport 1
lexuxm 1
smirnoff 1
gani 1
xxx 1
oi 1
huyok 1
preconcept 1
presum 1
buzzfe 1
landlord 1
restock 1
zipper 1
loreen 1
caliboyzclub 1
modu 1
ahhhh 1
zaibatsu 1
jancehlarik 1
czech 1
nestl 1
tramberk 1
å 1
teamnotasham 1
coop 1
tbf 1
wel 1
hyderabadhttp 1
tollywood 1
normanikordei 1
underpaid 1
stott 1
terri 1
slashgear 1
robust 1
italia 1
rubbish 1
didnt 1
novot 1
evolut 1
gratefuln 1
riphero 1
corneliustama 1
blessinabund 1
passerbi 1
rednationris 1
borisbanana 1
tight 1
ph 1
choicedramatvactress 1
xan 1
quilt 1
woodland 1
chile 1
tide 1
inconsider 1
spslearn 1
enabl 1
foodin 1
essencemag 1
simmon 1
asl 1
pavi 1
talker 1
homer 1
maaat 1
sideshttp 1
smear 1
rayner 1
hypnot 1
shownu 1
wonho 1
bonniecrombi 1
decemb 1
rl 1
omf 1
erpem 1
pent 1
sebab 1
aya 1
crappi 1
ndechekuti 1
chokwadi 1
bihar 1
intoler 1
booraem 1
hendrik 1
ford 1
gerald 1
catsoftwitt 1
kitti 1
downforc 1
gather 1
fyi 1
mfoundat 1
futurist 1
somersault 1
manhttp 1
cont 1
jdasilvag 1
tikya 1
aucuario 1
jcarolinaisava 1
virginiaescobar 1
addai 1
theatr 1
mrheal 1
seventeenpl 1
notangelinaa 1
easportsesp 1
swimsuit 1
alexandram 1
jungl 1
raj 1
yugpurush 1
ahmedabuhashima 1
ukatuka 1
kany 1
wrist 1
worship 1
publicworksweek 1
roundabout 1
dublinishom 1
follownewsnow 1
parl 1
azerbaijani 1
document 1
homebuy 1
trid 1
craftingismytherapi 1
toryelectionfraudhttp 1
myrealfairi 1
upholsteri 1
theatlant 1
foolproof 1
forens 1
gtown 1
samsungmobil 1
reset 1
evm 1
constitu 1
tenkasi 1
newsflash 1
bentli 1
coursera 1
myrtl 1
khaliel 1
paralyz 1
swung 1
pearson 1
akebono 1
boundari 1
craftbeerhttp 1
hoppinfrog 1
slave 1
coylehistoryhttp 1
airlift 1
berlin 1
tescosarebett 1
sandwhich 1
crusti 1
brill 1
loooool 1
lakedistrict 1
ballot 1
recif 1
apolo 1
restaurant 1
sqaud 1
stalker 1
sinacori 1
apicella 1
ryuutar 1
akimoto 1
camillelbaz 1
kharbanda 1
kriti 1
bat 1
equat 1
lantern 1
kinghueycash 1
kacey 1
weak 1
newmus 1
postpunk 1
deathrock 1
goth 1
coldblood 1
lexi 1
jbj 1
jackiebradleyjr 1
prettiest 1
panicki 1
radiosauriu 1
beatl 1
silhouett 1
twinni 1
georgesoro 1
disassoci 1
eremenkoalexey 1
zoo 1
sob 1
knock 1
tyranni 1
douchebag 1
sniper 1
bikerboypug 1
mystics 1
dcmusic 1
hunnid 1
raaz 1
cramp 1
hamster 1
clone 1
singforphil 1
pleasersvp 1
sohttp 1
problemat 1
brash 1
businesstip 1
accordingli 1
sketchi 1
schooler 1
kngrg 1
sigmahq 1
takethat 1
leduc 1
edmonton 1
russiatoday 1
waytogo 1
immort 1
starburst 1
wore 1
meangirl 1
moviereview 1
cincinnati 1
danmulhal 1
cabin 1
revolutionari 1
franchis 1
brizzyc 1
nancyclar 1
ijbailey 1
northwal 1
hawaii 1
maui 1
lilandmad 1
junk 1
epidem 1
obes 1
falko 1
yomo 1
customerrel 1
anthem 1
gaga 1
aggreg 1
webinar 1
uplatewithrylan 1
losangel 1
thetroubadour 1
comeonman 1
oahu 1
smdh 1
changerhttp 1
casshttp 1
thatrexguy 1
kraha 1
livestream 1
suvanabhumi 1
eunjung 1
forggv 1
loishua 1
fastcompani 1
rachsym 1
kauai 1
adminchat 1
repurpos 1
eybl 1
weari 1
nevertrump 1
orang 1
dalam 1
strongerin 1
voteleav 1
econoni 1
protectionist 1
shittiest 1
dethron 1
kroger 1
stansburyshow 1
haast 1
southislandnz 1
newzealand 1
dang 1
nevermiss 1
motorolaindia 1
lawrenc 1
jennif 1
choicedramamovieactress 1
rexal 1
jdm 1
tent 1
tentsil 1
realdonaldtrumphttp 1
yuge 1
gloriou 1
gospesl 1
aqageographi 1
cult 1
cinderblock 1
suk 1
ar 1
boomdiggidi 1
mesmeris 1
alunageorg 1
sheeran 1
dash 1
connector 1
startupshttp 1
susanguneliu 1
spa 1
dori 1
euth 1
gisel 1
mabok 1
tgh 1
englandawardshttp 1
bumblecricket 1
finest 1
accrington 1
thoroughli 1
gotv 1
fictionhttp 1
needshttp 1
so 1
lesliecannold 1
seriesfinal 1
mikeandmolli 1
mcmillan 1
mormon 1
orgullo 1
resit 1
yoo 1
gpu 1
asteroid 1
weneedberniehttp 1
coloringbook 1
fluhttp 1
hospitalis 1
kiedi 1
chili 1
tordotcom 1
tengren 1
eric 1
gamera 1
sciencefict 1
reloc 1
onlinebusi 1
reminisc 1
zzzzzzzzzz 1
안녕봄 1
orangehttp 1
neomab 1
fabrikdusport 1
vivatech 1
parenton 1
craziest 1
tge 1
seduct 1
ballyliffin 1
stout 1
anүon 1
tabbi 1
whenitsdarkout 1
vigilant 1
wald 1
blatantli 1
rim 1
imc 1
blackbox 1
mystic 1
сделаноунас 1
blurryfac 1
collis 1
heritagestickco 1
motor 1
miabit 1
estrelladamm 1
itsvaleriekay 1
harvest 1
melendez 1
edwin 1
jove 1
globalgo 1
prerequisit 1
rachelbustin 1
blogger 1
larrymard 1
beatlessunday 1
usaprouk 1
getweirdtourosaka 1
inst 1
principl 1
dyke 1
latta 1
priu 1
toyota 1
beginn 1
tabula 1
rasa 1
seller 1
bellewmakabu 1
burnsdirocco 1
radiomcsweb 1
saliva 1
weekhttp 1
shreveport 1
hongkong 1
ryeowook 1
ossifi 1
csgohubgg 1
contempt 1
pratap 1
maharana 1
venkaiah 1
vk 1
cking 1
photocontest 1
travelimag 1
vest 1
desir 1
prasek 1
patriot 1
ikoncomeback 1
ikonyg 1
hanbin 1
moneybal 1
monchi 1
dyinggg 1
karmyhq 1
sonic 1
downsiz 1
skege 1
mixer 1
sardesairajdeep 1
nadu 1
tamil 1
aiadmk 1
clearwinn 1
crismoviecorn 1
diann 1
brennan 1
patricia 1
mmmmmmmmmhttp 1
masscultur 1
burlingtonplan 1
winwin 1
swerv 1
marzipestonji 1
glengle 1
rajeshmumbairaj 1
omungkumar 1
sarbjitconcert 1
shiamakoffici 1
tharealjumpman 1
tit 1
saggi 1
phrase 1
mmusi 1
dobrev 1
istg 1
iwannarasslehttp 1
knockout 1
thankyoufakingit 1
posteraddict 1
bohemian 1
rediscov 1
spiritu 1
womaninbiz 1
floral 1
brucejapsen 1
expand 1
walgreen 1
petfind 1
lilo 1
mariah 1
thehistoryofww 1
grahamcawthon 1
mumbai 1
nightmar 1
kiley 1
simonschust 1
khemiri 1
hassen 1
cohen 1
luc 1
squeez 1
driller 1
zneqq 1
hallelujah 1
telemanmus 1
teamanim 1
eqaf 1
butterfli 1
pandem 1
myth 1
lastli 1
tcute 1
newjerseyprimari 1
holla 1
bayola 1
walli 1
pong 1
wala 1
omgmg 1
pitbul 1
cabrini 1
bulimia 1
dangiuliani 1
laiiaslimani 1
samislimani 1
overwatchgg 1
ramrajya 1
gatorn 1
berner 1
famoushalsey 1
alrentroy 1
brookechoos 1
mindofmin 1
museumdocument 1
nationalgalleri 1
manual 1
workflow 1
cityam 1
mee 1
interraci 1
despar 1
electionfraud 1
sophomor 1
vcusocialwork 1
bsw 1
aye 1
whalebon 1
chadwel 1
rvre 1
ssteffieee 1
ringo 1
mitbetterworld 1
changer 1
bostonglob 1
neurobiolog 1
synthet 1
andd 1
aaaaaaaaaaaaaaaaaaaaaaaaaaaaaaaaaaaaaaaaaaaah 1
paulmgardn 1
theril 1
breed 1
hermosa 1
playa 1
hyungwonho 1
terrac 1
amendola 1
dominiqu 1
yessi 1
oasi 1
norwegian 1
uwcrcn 1
dagen 1
gratuler 1
iamkingofgod 1
deffstr 1
ndtvproperti 1
captaincornhol 1
raychiimba 1
ost 1
istanbul 1
spokesperson 1
imperson 1
archer 1
yahl 1
respectloui 1
rapsheet 1
wdsu 1
scifri 1
urm 1
crazyyyy 1
vindict 1
reveng 1
encount 1
subsidi 1
casino 1
odr 1
dewpoint 1
rh 1
minwon 1
cycler 1
huroncti 1
ana 1
ihatequot 1
janakikumar 1
sapsv 1
cascad 1
scrimmag 1
getweirdtour 1
pdopeflow 1
douglaswickard 1
jtv 1
sami 1
peril 1
publicli 1
markhalperin 1
cutz 1
fewest 1
quickest 1
seokjin 1
dermatologist 1
naptim 1
zonal 1
hotcraftspirit 1
revolverrum 1
amazonin 1
helicopt 1
siwakoti 1
chandra 1
biz 1
forreal 1
gregkulowiec 1
kerrywashington 1
albert 1
clariti 1
zedd 1
anc 1
ladyhttp 1
geobusinessshow 1
surveyor 1
successrol 1
thunderstorm 1
sonam 1
kapoor 1
inhal 1
smackdown 1
leafi 1
index 1
nopehttp 1
iwcp 1
butt 1
deadlift 1
apothecari 1
kinki 1
teamnatur 1
unusu 1
limer 1
orderpap 1
halt 1
showtim 1
hank 1
longplay 1
playthrough 1
gameplay 1
arcad 1
alter 1
cord 1
spinal 1
sciawar 1
tweep 1
outa 1
hyperloop 1
swiss 1
lcsw 1
janetbarclay 1
coattail 1
northern 1
roundup 1
kalu 1
utsa 1
coachwilsonutsa 1
gtga 1
glorifi 1
guesshttp 1
forb 1
merger 1
mop 1
zimbabw 1
rohit 1
kohli 1
bloodi 1
counsellor 1
assaya 1
olivi 1
photocal 1
parishttp 1
alantudyk 1
droid 1
linda 1
ikeojuok 1
amerix 1
iebcmustfal 1
tenni 1
rewatchinng 1
dailymot 1
amor 1
dolc 1
birdsup 1
baymen 1
megmagazin 1
osborn 1
modestgolf 1
karruech 1
loml 1
김지원 1
actresskimjiwon 1
kimjiwon 1
cookbook 1
prez 1
assuredli 1
pound 1
chaelincl 1
haroobomkum 1
goprohttp 1
teahupoo 1
bigjoeonthego 1
thepoguest 1
fleur 1
dorm 1
hyoyeon 1
onceabc 1
regalfamili 1
counti 1
hernandez 1
goooooo 1
eureferendum 1
probe 1
cso 1
starlord 1
empir 1
tanya 1
skull 1
tsung 1
deekshabahl 1
concret 1
iamfox 1
suburbia 1
frozendrink 1
cater 1
courteou 1
reggaecafeto 1
invad 1
blackchiney 1
phd 1
mgwv 1
getemniqu 1
edison 1
etspeaksfrom 1
bandaiuk 1
bundl 1
interchang 1
pinypon 1
bambam 1
iggyazalea 1
encod 1
messiah 1
kanina 1
mejo 1
derrick 1
taint 1
juliaclaudia 1
claudia 1
julia 1
shite 1
cbi 1
adani 1
sujeilugo 1
jokest 1
merlin 1
zmgmusic 1
luxuri 1
tower 1
eiffel 1
onnnnnnn 1
baltimoreboh 1
uslpdl 1
belpré 1
pura 1
invalu 1
latinosinkidlit 1
worn 1
tintin 1
quartzit 1
greatli 1
teamironman 1
necklac 1
halloween 1
az 1
ahern 1
wonderopoli 1
campedmo 1
variquest 1
droneblock 1
plumgeek 1
bunce 1
iamnarendranath 1
sagarikaghos 1
yrdeshmukh 1
odi 1
galway 1
penalti 1
galatasaray 1
brownvboard 1
eastview 1
mcri 1
baddo 1
bahd 1
falzthebahdguy 1
nig 1
pod 1
tum 1
fangirl 1
tout 1
nickel 1
cambridgeshir 1
ronanoffici 1
thankin 1
enoch 1
jonhalo 1
billperiman 1
useconomi 1
therein 1
rysmedia 1
detroit 1
riff 1
netflix 1
animaniac 1
zaun 1
bradman 1
donhttp 1
화양연화youngforev 1
primaryteachertrain 1
seoul 1
mavcart 1
limra 1
guarante 1
slick 1
swaggjazz 1
shootaround 1
gameplan 1
nonoo 1
kon 1
jn 1
usdahttp 1
agsplay 1
lag 1
ephemer 1
whistlethink 1
fuccin 1
thunderuphttp 1
ayrshir 1
solidar 1
peeewwiiiitttt 1
bcndp 1
steelern 1
redward 1
taylorsportsad 1
mikedy 1
lebanon 1
instadaili 1
instap 1
sportsnet 1
movessss 1
jurassica 1
jinx 1
alvi 1
rashid 1
srchd 1
skyword 1
taylormhol 1
fearbasedmarket 1
brandstorytel 1
yessir 1
nepnhshttp 1
smartcard 1
persever 1
cruel 1
regert 1
swoosh 1
sweepstak 1
thegtmc 1
drgerardlyon 1
abyvss 1
weslaco 1
peepin 1
eveyday 1
synch 1
cgi 1
gusta 1
darl 1
acabo 1
lobbi 1
gravi 1
khaleesi 1
pappu 1
tharki 1
buddhu 1
daya 1
dopejeon 1
태형 1
itinerari 1
deviat 1
tripit 1
elenadonio 1
geoplung 1
amidonbowen 1
savoyelementari 1
mesh 1
saxon 1
wale 1
cymru 1
tobi 1
lrsdenver 1
beeandacorn 1
memoir 1
celesteheadle 1
scad 1
osttalk 1
mygpb 1
repurchas 1
petrobra 1
chevrolet 1
요즘넌어때 1
knk 1
크나큰 1
liverideshar 1
불타오르네 1
beginhttp 1
ello 1
masekela 1
ikea 1
pegatron 1
foxconn 1
beck 1
chukchi 1
departur 1
arcticenergyu 1
geoenergypolici 1
dming 1
gangsta 1
blueprint 1
dislik 1
huffpollst 1
southpark 1
craze 1
cod 1
upsid 1
ciao 1
nooooo 1
ltda 1
brasil 1
mirka 1
mustang 1
passion 1
philippebacheli 1
travelnew 1
nuneaton 1
stafford 1
anita 1
hugh 1
shadi 1
lowewhhh 1
arlisdonotchil 1
bga 1
desold 1
pcie 1
sata 1
smallbusi 1
surf 1
billabong 1
goold 1
philip 1
roger 1
emmablackeri 1
perman 1
emb 1
singhaa 1
zorawar 1
asliyoyo 1
dissens 1
ham 1
irrit 1
gut 1
parodi 1
tiller 1
bryson 1
wright 1
howler 1
redditch 1
umanah 1
ivy 1
advert 1
sikora 1
juliet 1
belong 1
wider 1
osbourn 1
ozzi 1
monument 1
accutan 1
nirajain 1
milendsingh 1
iamsangeita 1
bombaytim 1
kong 1
cru 1
chabli 1
foodi 1
appbounti 1
bicyclist 1
riverdal 1
oswald 1
debunk 1
romanian 1
barrywellman 1
heroin 1
fashiontradit 1
chunki 1
handmadecrochet 1
legalbulletin 1
thedailybant 1
zealot 1
leon 1
ierra 1
elsword 1
gope 1
ver 1
authoralock 1
pte 1
christa 1
studentloan 1
hbcu 1
salliema 1
rut 1
imprison 1
flyfish 1
tatelman 1
jenni 1
angler 1
chrisforpresid 1
aidijuma 1
duncanson 1
pend 1
ku 1
hwi 1
balloon 1
firstcommunion 1
joywilliam 1
satisfi 1
kaila 1
gymnasium 1
ym 1
ghoul 1
jorgeblancog 1
jbrespondesnap 1
ars 1
mustread 1
osprey 1
midfield 1
resend 1
gp 1
tasveerain 1
bachun 1
regularlyhttp 1
wid 1
shoutrt 1
dysmorphix 1
headless 1
specialist 1
flurri 1
mustangprid 1
noah 1
capri 1
tucker 1
emma 1
highwoodhigh 1
overcam 1
leicparanorm 1
cartel 1
sunz 1
whippin 1
allyouheardwasbuzz 1
hargrav 1
corbin 1
rhythmanddril 1
haircut 1
monthli 1
mayweath 1
floyd 1
austr 1
krti 1
someday 1
dahyun 1
stimulu 1
threa 1
moodhttp 1
tt 1
snsd 1
monkeywellb 1
nationalsmilemonth 1
norvskent 1
runnin 1
healt 1
wane 1
australia 1
aussi 1
jackmallinson 1
reformicon 1
chukka 1
healthit 1
fwuhttp 1
thedetourrock 1
thedetour 1
coffin 1
theliamcarrol 1
adhd 1
shabbi 1
calv 1
trickier 1
livingston 1
churchil 1
enthusiasm 1
gdp 1
hooow 1
sway 1
camil 1
tipsi 1
kikovacoffe 1
chomski 1
noam 1
evacu 1
inscrut 1
provinc 1
yunnan 1
pie 1
cherri 1
soak 1
moonlight 1
ohhhhhhhhhhhhh 1
politicshttp 1
marcu 1
conceiv 1
doood 1
smokin 1
ufck 1
oohhm 1
georgialiv 1
okonkwo 1
arrog 1
swat 1
dekabright 1
hoo 1
delus 1
illus 1
rubio 1
marco 1
kintamani 1
poptart 1
scupper 1
petrol 1
lah 1
timet 1
bodoh 1
hardwork 1
grosser 1
mirag 1
plenti 1
mirrag 1
egerton 1
taron 1
tatum 1
chan 1
firth 1
ianpchristi 1
crazyhttp 1
balancingactafr 1
raycorrigan 1
nextwav 1
iocmedia 1
embarrassmenthttp 1
laafiaji 1
ohhhhh 1
reschedul 1
drab 1
exuma 1
sandalsresort 1
krista 1
pineapplefloat 1
dbut 1
onc 1
chattanoogafc 1
petemayb 1
justlovehub 1
justlovenibbl 1
goodfoodrealfood 1
pmq 1
gchq 1
rthttp 1
followm 1
exceed 1
maomao 1
rp 1
namjoon 1
pembrokeshir 1
morphosauru 1
veephbo 1
davidhmandel 1
tshirt 1
adrenalin 1
gander 1
shawnworldtour 1
kitsch 1
todmorden 1
shabbych 1
homebird 1
wardrob 1
sensat 1
copolit 1
dementia 1
whywedoresearch 1
rr 1
supersalad 1
madametusoon 1
davidbenn 1
nna 1
bywat 1
kieran 1
stlfiredept 1
makeupplu 1
transmit 1
mattzollerseitz 1
cx 1
stlytl 1
elianetozman 1
getvis 1
tampon 1
bluetooth 1
caseymoreta 1
cracker 1
funion 1
gtg 1
ajax 1
deadpool 1
celebritypool 1
msq 1
hugo 1
freelolita 1
hayleymarac 1
nsf 1
nih 1
scipolap 1
hilldayap 1
thohttp 1
lebella 1
happysleev 1
wl 1
wlscommun 1
changingmorel 1
shattawalegh 1
stonebwoyb 1
aroundtown 1
burk 1
sharenew 1
끄덕끄덕http 1
wya 1
bryntorpey 1
porter 1
alisan 1
desperado 1
alisanport 1
letemout 1
iss 1
hitta 1
salescloud 1
inkigayo 1
radiohitsontheq 1
snapback 1
dominion 1
algiordano 1
layperson 1
philosoph 1
uu 1
reclin 1
moodi 1
berjiwang 1
yeahhhhhh 1
simplelif 1
drivetimeonhappi 1
cloudi 1
wnw 1
embassi 1
ushttp 1
academi 1
medway 1
medchildrenjob 1
carriemckenzi 1
soonhttp 1
wealroinvest 1
shush 1
yolo 1
iamparson 1
beggar 1
unblock 1
incit 1
moscow 1
kpa 1
nuland 1
whsmith 1
beourbesel 1
kateeparkin 1
nelli 1
parker 1
storytimewithjeffi 1
imajeffi 1
fyne 1
loch 1
toggl 1
shirleysetia 1
hum 1
pharmacist 1
thingsexpo 1
calipari 1
timpanist 1
ringhttp 1
terencelemarllc 1
gh 1
deepsilv 1
who 1
funnyhaababhah 1
dia 1
tyson 1
personofinterest 1
sharpen 1
thesurpexchang 1
digitalinclus 1
marketplac 1
esteward 1
kcmo 1
upenngrad 1
penn 1
interviewmag 1
geenadavi 1
incompar 1
emwatson 1
div 1
legu 1
divorc 1
undecid 1
includu 1
isl 1
sono 1
tragedi 1
abubakar 1
mandelscum 1
portag 1
leah 1
usasportsmerch 1
louisiana 1
otwolsepanxforeverhttp 1
louie 1
duo 1
childish 1
pererathisara 1
deeplearn 1
machinelearn 1
artificialintellig 1
daredevil 1
ggmf 1
thankskil 1
suspendodor 1
rpsvdd 1
goo 1
kurt 1
cluelesa 1
cobain 1
xii 1
animationday 1
garrido 1
sheffield 1
aaa 1
slaughter 1
bump 1
rightshttp 1
carlbildt 1
ianbremm 1
aftenoon 1
carrol 1
digi 1
sticki 1
triviatuesday 1
gobuhuski 1
toooooo 1
whiiiiil 1
bother 1
nwsspc 1
ferganom 1
ballet 1
spandau 1
stillman 1
brk 1
waltham 1
nvrmind 1
ohhhhhhhhhhhhhhhhhhh 1
bonamassa 1
gs 1
lya 1
ykhalek 1
rabena 1
wallah 1
shannonsharp 1
coolgrumpi 1
bello 1
rage 1
ｃｏｍｅ 1
whitest 1
joel 1
xdannyxbrownx 1
mentalhealthawarenessweek 1
passportirl 1
bombard 1
rainyday 1
pancaketurkeybaconeggwhiteday 1
reevalu 1
alvarez 1
trudeau 1
dove 1
dob 1
mcallen 1
schalk 1
montreal 1
hamada 1
fisal 1
thine 1
broom 1
shalt 1
thou 1
mosquitoshttp 1
seaworld 1
unnatur 1
hoehttp 1
salti 1
foe 1
panahon 1
goldrush 1
goldenmil 1
lifelight 1
gamblecsgocom 1
sworn 1
foggi 1
fender 1
digger 1
tele 1
mga 1
allej 1
riguel 1
twang 1
catalandesign 1
gatopardocom 1
eugeniquitlet 1
portrait 1
zehotavio 1
yorkstjohn 1
chuckl 1
slowli 1
flashlight 1
mutantmashup 1
spare 1
lordwhat 1
satindean 1
deansbootyjam 1
although 1
graphic 1
northernhil 1
tabletop 1
madleyprimarysc 1
explorethestor 1
finder 1
poland 1
ub 1
spon 1
homestylehug 1
hsbc 1
homestyl 1
hearti 1
jai 1
ragusauc 1
hohttp 1
spelman 1
madli 1
ilovey 1
busyday 1
bogdan 1
brunz 1
fare 1
nottinghamshir 1
monro 1
warwickshir 1
costum 1
battlefield 1
dev 1
urealm 1
kidz 1
eathappyproject 1
meninkilt 1
congest 1
scruffi 1
discern 1
tonyromo 1
viceryl 1
swirli 1
lush 1
morninghttp 1
dawnchang 1
imokontrabidarol 1
ceas 1
pipelin 1
versu 1
brianabanksxoxo 1
gad 1
speedi 1
nicknam 1
ordain 1
telesery 1
lilipa 1
pocu 1
hocu 1
sjp 1
oliv 1
anoint 1
iliad 1
grindin 1
waistcoat 1
garish 1
magpi 1
carsonpalm 1
alexsmith 1
jaycutl 1
무한도전 1
sl 1
facil 1
dontyouworrybytony 1
tyse 1
tony 1
spalletti 1
luciano 1
roma 1
hbo 1
mong 1
saviour 1
subconsci 1
infinit 1
philipriv 1
buildingpeopl 1
hpfootbal 1
teamhp 1
iamjayplatt 1
cone 1
angelaeaglehttp 1
shawnmend 1
eopl 1
manila 1
nakuul 1
sail 1
calai 1
sani 1
mollyqerim 1
dimitri 1
kwebfest 1
yukata 1
miamiwebfest 1
boiiii 1
freaki 1
bitdch 1
paranorm 1
frostfyr 1
caesar 1
flick 1
आए 1
thesehttp 1
multipl 1
mansk 1
tati 1
forbidden 1
thai 1
coin 1
messyhttp 1
celebdadoftheyear 1
xolo 1
iwasmadeintheam 1
marshal 1
gotten 1
finn 1
fra 1
amazonindia 1
레이 1
bilbaowebfest 1
webfestberlin 1
eren 1
weaker 1
remembr 1
cosmopolitan 1
bronx 1
z 1
albumhttp 1
taalthokk 1
sardanarohit 1
pacifi 1
thrice 1
heathslateromrbhttp 1
maulanasahab 1
nomoreduti 1
thetravelcamel 1
eggwhisk 1
ist 1
feet 1
huski 1
cabinet 1
vital 1
ppa 1
kyprimaryhttp 1
ntpc 1
pavagada 1
fragranc 1
trippin 1
denounc 1
betul 1
zoom 1
rgcl 1
truthout 1
disguis 1
kidnap 1
retreat 1
blackwidow 1
veterinarian 1
exot 1
evanantin 1
elfquot 1
cymbala 1
youuuu 1
misandri 1
femin 1
brad 1
marvzoui 1
lovingmyzayn 1
maliksdear 1
mindofminezayn 1
allthelovezjm 1
mysunshizayn 1
maya 1
devot 1
eyelin 1
dan 1
baru 1
갓세븐 1
punya 1
akashi 1
momcav 1
franz 1
nuzzel 1
vevoplusplu 1
ratehttp 1
coloni 1
lilbro 1
goodlook 1
kapak 1
dewdrop 1
teribbl 1
infosmg 1
malwar 1
hord 1
diffus 1
uhr 1
elijah 1
hmvmanchest 1
oraclevgoogl 1
rethink 1
webbi 1
kcom 1
batcam 1
giveitup 1
itch 1
westfield 1
bush 1
matrik 1
retch 1
crowder 1
beautifulaustralia 1
holocaust 1
rev 1
denver 1
shorter 1
mmm 1
lcfc 1
nxt 1
gud 1
littt 1
relay 1
hillsong 1
lmfaooooohttp 1
instantli 1
disabl 1
chamberofsecret 1
luggag 1
withdrawn 1
templat 1
deleverag 1
rrgb 1
reflex 1
fruiti 1
inbreed 1
countertop 1
acryl 1
misterwillett 1
fakingitwrit 1
mtvfakingit 1
baileymdeyoung 1
therealritavolk 1
greggsulkin 1
daydream 1
fx 1
krystal 1
torontofir 1
marafa 1
glare 1
niger 1
mikasa 1
nod 1
utah 1
sincerepyrrh 1
joli 1
angelina 1
valchmerkovskiy 1
rosen 1
sergio 1
obasanjo 1
sisster 1
nnpc 1
ladivagant 1
gustorchia 1
waffl 1
floss 1
bacteria 1
gum 1
chew 1
viru 1
chopper 1
whitegirlreituu 1
drunken 1
thekatiesteven 1
plaster 1
lostlak 1
motherandsonvintag 1
gavinhen 1
rong 1
nang 1
satellit 1
themizophyllalbum 1
rolemodel 1
mcafe 1
whatsapp 1
ingredi 1
encrypt 1
russzimm 1
asburyparkpress 1
asburi 1
spray 1
breakingbank 1
creekwood 1
whitland 1
inaugur 1
krauthamm 1
heod 1
isra 1
rachellejervi 1
nato 1
liken 1
meaning 1
projectpabst 1
secretshow 1
revisit 1
hihi 1
gummi 1
trapmus 1
bookend 1
barclay 1
mcclelland 1
lifespan 1
ruggerorespigo 1
nerotri 1
recal 1
djmx 1
goldentruth 1
technotut 1
jumpstyl 1
hardstyl 1
mixerjp 1
spat 1
gewnki 1
prin 1
joculet 1
alt 1
anywher 1
cascadiaeq 1
willistonteam 1
ast 1
applemusichttp 1
dir 1
letmeloveyouvideo 1
headbang 1
ergoarena 1
girotra 1
yellowston 1
neeeda 1
duchess 1
humanhttp 1
stanatalkradio 1
buck 1
mitig 1
drought 1
chhattisgarh 1
aso 1
mailman 1
blacknois 1
themotorleagu 1
snore 1
rm 1
poshmark 1
fossil 1
leather 1
poshmarkapp 1
whomev 1
mcfchttp 1
debdasp 1
discoveri 1
beaconstweet 1
widespread 1
sabbath 1
jjang 1
weakest 1
asfcuz 1
luppa 1
bossss 1
bison 1
buff 1
combat 1
herb 1
trillium 1
manchesterunit 1
striker 1
superstar 1
sonoma 1
mabel 1
xenovers 1
sniff 1
coachyokeley 1
stonglink 1
blitz 1
bizitalk 1
capsuledesign 1
capsul 1
amazingli 1
blackjack 1
wailuku 1
hilo 1
honolulu 1
fanacc 1
applemus 1
beak 1
surrog 1
graff 1
shinjuku 1
orrr 1
thoohttp 1
chapel 1
chapelhil 1
simplist 1
washingtonpost 1
capehartj 1
fishmigr 1
cioshafiq 1
badgalanera 1
sportsperson 1
anthil 1
jasonjhuti 1
scout 1
cnblue 1
cle 1
idiom 1
upward 1
gil 1
outland 1
columbiamagazin 1
redempt 1
gaze 1
lovingli 1
girlsday 1
hyeri 1
adtech 1
sk 1
abfamilytalk 1
koreanupd 1
reconcili 1
zalewski 1
magna 1
powertrain 1
twitch 1
resel 1
dimens 1
olson 1
anna 1
bizdev 1
skinless 1
boneless 1
clayton 1
paintingparti 1
streamshttp 1
indiedev 1
iamgameon 1
howdi 1
freddi 1
moran 1
astro 1
gull 1
incub 1
ericfrodg 1
kimani 1
wa 1
shortli 1
ijersey 1
ukuguma 1
lavish 1
rab 1
ib 1
nausea 1
flavor 1
reinvent 1
windi 1
precipit 1
julienitedph 1
laliesposito 1
mejorvestidamf 1
tre 1
stile 1
lbc 1
foolish 1
rennav 1
mkxmobilehttp 1
purplerain 1
guinea 1
disc 1
tattersal 1
aidan 1
gurkha 1
citywid 1
mdw 1
timelin 1
scroll 1
hpediscov 1
brows 1
zoe 1
candybrid 1
variabl 1
rebind 1
hr 1
wdisplay 1
pointless 1
offlin 1
wildscreenex 1
horrend 1
niclasbenjamin 1
elector 1
davidson 1
ruth 1
cbsnlive 1
zack 1
stld 1
steel 1
celib 1
wingbosstf 1
procrastin 1
sovereign 1
occasion 1
obaman 1
waaky 1
yawperfumedric 1
twerp 1
condescend 1
piinksparkl 1
bangkok 1
enjoyin 1
tae 1
drtumisang 1
benghazi 1
rewrit 1
cous 1
unni 1
unattract 1
เยซอง 1
broad 1
bristolc 1
sangwoo 1
rocket 1
morningsid 1
rachel 1
redneck 1
nonsens 1
endorphin 1
endomondo 1
unintellig 1
uptop 1
gotti 1
neek 1
andygbook 1
griffith 1
lifelong 1
davelacki 1
slate 1
aeabo 1
adactio 1
simplest 1
syw 1
palladium 1
shopyourway 1
jiho 1
ณ 1
sarreeh 1
xxxx 1
eskip 1
fcbbvb 1
shapingpharmaci 1
cblatt 1
npratc 1
rpharm 1
hitboxl 1
falcon 1
bobafett 1
velveeta 1
cheesiest 1
own 1
kraft 1
macjo 1
poorm 1
zeecinemapar 1
pheri 1
hera 1
phir 1
pierquin 1
dopahar 1
inka 1
kodjia 1
lieshawti 1
qdoba 1
tapast 1
teamaimaz 1
bnppariba 1
tedchri 1
curios 1
pep 1
iheartrealest 1
est 1
trebhom 1
autodesk 1
hingepoint 1
realtim 1
ting 1
tugga 1
brycefinnerti 1
fightshttp 1
wacha 1
edi 1
resembl 1
gorg 1
bec 1
gsd 1
chesterfield 1
wendi 1
minghao 1
sammi 1
nyoom 1
vitalchoic 1
cto 1
trigger 1
jaeminblak 1
oozypoo 1
gag 1
organiclivefood 1
weve 1
autism 1
djiglob 1
humerros 1
crossbourg 1
sweetrhythm 1
bvweir 1
gerardjameshay 1
cour 1
martini 1
teamvillanosfdl 1
liberalis 1
deregul 1
oz 1
seangtomlinson 1
worthingjob 1
cdc 1
tamworth 1
hgv 1
faberbook 1
scrape 1
retrospect 1
sharon 1
cashier 1
mababeza 1
micheal 1
shredder 1
fuckinf 1
mercuri 1
sleeeeeeppp 1
zingi 1
bowi 1
duck 1
issaquah 1
glp 1
tillmann 1
brandenburg 1
rockt 1
bbradio 1
fireston 1
saaaaaavvvvaaaaaggge 1
overal 1
snipe 1
cring 1
elbow 1
noscop 1
scanavino 1
bryce 1
toogood 1
foreverrrrrr 1
gmm 1
gala 1
paddi 1
ijugg 1
cooliecapo 1
fundrais 1
manish 1
ulterior 1
djt 1
calf 1
lena 1
petteri 1
tarkkonen 1
fisher 1
sunderlandfutur 1
getskil 1
beastaratinterview 1
leap 1
yomi 1
schoolmat 1
infact 1
slaneeshi 1
rhyme 1
devast 1
moongirlanddevildinosaur 1
kaepernick 1
barn 1
burnham 1
tata 1
desmo 1
niec 1
taunt 1
ontem 1
schwarzenegg 1
arnold 1
bernal 1
jorg 1
nicki 1
ooh 1
betterplan 1
monicaslov 1
lockscreen 1
embed 1
abono 1
lox 1
mahogani 1
philmackey 1
outright 1
pol 1
yamaha 1
lifehack 1
upper 1
taiwan 1
dbaich 1
beverlyhilton 1
abolitionaward 1
songsofjbrown 1
saban 1
hopeless 1
baez 1
joan 1
unproven 1
컴백 1
로스트 1
더클랜 1
theclan 1
wowowowww 1
meadow 1
inbound 1
muirhead 1
huerto 1
umedaayakafact 1
ade 1
northsid 1
paramilitari 1
alsi 1
troy 1
keepkidssafehttp 1
tanzania 1
herjudgementproblem 1
oppos 1
frickkin 1
grossetpss 1
logbook 1
starfleet 1
startrek 1
oppa 1
ngari 1
fifthharmoni 1
rootless 1
insideandoutconfer 1
lgbtq 1
parentequ 1
cheridinovo 1
junhyeok 1
hodder 1
jaehyeokjin 1
argument 1
yummi 1
gymnast 1
newest 1
triumphant 1
muerto 1
drawingdav 1
hayden 1
castlezain 1
hesblxckjean 1
thingyyi 1
devic 1
rnbzjmalik 1
unfpa 1
optic 1
insecur 1
thoughhttp 1
maasmuseum 1
powerhous 1
vividsydney 1
astronomi 1
aaoastro 1
sydney 1
midwiv 1
enha 1
elsong 1
elmus 1
fe 1
bookbang 1
morri 1
sherri 1
smolder 1
brandon 1
legendsoftomorrow 1
proce 1
fearlesszjm 1
liv 1
zaynsftabel 1
royaltroongc 1
jfc 1
wbkotv 1
mideast 1
tcrook 1
rawalpindi 1
tulli 1
sheeda 1
mazari 1
shireen 1
roar 1
celticfc 1
randa 1
unfit 1
ziamsftdrak 1
kripk 1
libel 1
malici 1
haiden 1
admonit 1
stripper 1
glitter 1
crucifi 1
flamini 1
mathieu 1
boardroom 1
zjmseuphoria 1
twisto 1
okie 1
الهلال 1
harrison 1
trouser 1
bib 1
blondi 1
kinjad 1
killin 1
llama 1
fullback 1
auburn 1
tetoh 1
coverart 1
nesmania 1
tasteamorino 1
rpg 1
backwood 1
rello 1
skale 1
monacogp 1
ultrasoft 1
max 1
ricciardo 1
verstappen 1
interm 1
wizkid 1
crystalgbedu 1
goldfinch 1
donna 1
tartt 1
laredouteuk 1
dooon 1
irdk 1
livescor 1
dataanalyt 1
hetfield 1
metallica 1
bottomless 1
motorbreath 1
vdo 1
ia 1
tinadabi 1
ballad 1
tiwari 1
shilpi 1
sanghi 1
filo 1
lahat 1
maingay 1
madald 1
unstructur 1
dailybigdata 1
mercantil 1
slapper 1
drudg 1
stepchild 1
appeari 1
emiraticuisin 1
bul 1
bulfc 1
scvu 1
otwol 1
coolfm 1
envi 1
makemymellenium 1
cla 1
starladd 1
hanastori 1
catastroph 1
musician 1
lsu 1
wtfsisma 1
yoooo 1
grew 1
rayparkerjr 1
sephora 1
bloom 1
ronhermandotcom 1
ond 1
bastil 1
pompeii 1
sila 1
ohh 1
frequenceplaisir 1
musiqu 1
telemedicin 1
cchpca 1
williamsruto 1
mankind 1
gennkaisserri 1
corddemo 1
allianc 1
solicit 1
saphana 1
surrend 1
pbwritersroom 1
eximind 1
petz 1
lacki 1
rollerbal 1
operationbulldozecongress 1
greyhttp 1
artifact 1
submerg 1
ignit 1
capcraft 1
fascin 1
ryerson 1
foodstamp 1
impos 1
forefront 1
bridalrelovedl 1
emmateasdal 1
macconf 1
taser 1
spars 1
noisi 1
crank 1
hen 1
nevada 1
tradit 1
maddow 1
businessintellig 1
mmbuch 1
buch 1
sedin 1
murphi 1
bellami 1
deptstoreldn 1
cel 1
courtyard 1
hotwirecoffe 1
hentai 1
wsmovi 1
manga 1
azi 1
ctt 1
conni 1
wiki 1
slfltulsa 1
acca 1
derbycounti 1
derbi 1
hullciti 1
bandwagon 1
mirecweek 1
shona 1
warsaw 1
lambert 1
bonang 1
bleach 1
eazi 1
ovechc 1
mw 1
devalpatrick 1
lexa 1
wax 1
fuckyeazarri 1
heathrow 1
ip 1
wildbw 1
stonybrooku 1
poorer 1
background 1
osbornehttp 1
itourzw 1
chrome 1
polish 1
buf 1
pendejo 1
policehttp 1
pepperoni 1
thesi 1
banksideforest 1
sq 1
wildflow 1
melod 1
homeboy 1
glimps 1
tcaf 1
letsgetdanki 1
shohrabuddin 1
kkirstend 1
tocuritastingparti 1
abuja 1
milena 1
bradford 1
hairdo 1
craftbeer 1
holliecradduck 1
nativ 1
valley 1
corporateoverlord 1
leuk 1
een 1
vind 1
ik 1
oligarchyhttp 1
stealth 1
jessicaspiritdd 1
turtlebeach 1
badgley 1
rtebia 1
mischka 1
navi 1
livelin 1
helmstett 1
shad 1
korea 1
craftshout 1
cakesmash 1
sz 1
chevron 1
pintofsci 1
chefslif 1
mrsannetwist 1
wheatfield 1
ymm 1
owt 1
sepinwa 1
annoyingli 1
harbour 1
riseuphttp 1
uw 1
iii 1
moveon 1
thrown 1
bryan 1
autoupholsteri 1
kearney 1
mauro 1
edgar 1
srri 1
minand 1
mbruntim 1
horrors 1
picotto 1
imdb 1
ultimahora 1
clutchoffici 1
npfallon 1
lyricist 1
asund 1
ibiza 1
seedless 1
gocoach 1
pltw 1
bankrupt 1
feig 1
qt 1
oneokrock 1
minimum 1
certif 1
counsel 1
madhuridixit 1
washingtonian 1
penggggg 1
owe 1
baebi 1
shinnii 1
dong 1
giantsgam 1
lawlordavid 1
xboxon 1
soo 1
thatonequeen 1
cotton 1
joshuadun 1
deltainspiredpro 1
grit 1
deltafaucet 1
pitt 1
moss 1
andr 1
redskin 1
vlm 1
monetis 1
strongertogeth 1
berkle 1
pussymat 1
caution 1
oxi 1
tidalhifi 1
dueleelcorazon 1
brutalis 1
joffrey 1
tommen 1
giggl 1
circa 1
themhttp 1
mgr 1
digitalmarket 1
saranac 1
ama 1
mtvbase 1
loudenwainwrightiii 1
tumishomasha 1
siruti 1
lsbafrica 1
loudenwainwright 1
joss 1
whedon 1
stevi 1
rendit 1
kevin 1
cappella 1
spanish 1
pete 1
dealer 1
ecl 1
rodger 1
brendan 1
fairli 1
taekook 1
searchmarket 1
gifcont 1
sejourn 1
cp 1
interim 1
managementhttp 1
metric 1
soscandinavian 1
australian 1
unasur 1
aarhu 1
alba 1
compartment 1
chennairain 1
mailonlin 1
incur 1
torment 1
chitti 1
mushroom 1
cng 1
afv 1
americanfuel 1
startuplif 1
warburton 1
truro 1
onedirect 1
playingkimba 1
reppin 1
hadfield 1
tupperwar 1
booksel 1
therefor 1
whilst 1
entitl 1
modifi 1
citadel 1
terbaek 1
blinddaley 1
sorzano 1
crushplast 1
adir 1
plastic 1
coppin 1
nerf 1
witch 1
extremem 1
js 1
ryu 1
goufv 1
reproduct 1
evidencebasedteach 1
yourock 1
northeasthour 1
malibu 1
thingsiyellwhenicum 1
donthecon 1
coal 1
taufeeq 1
saad 1
fbforum 1
rafiq 1
sliptrickrd 1
grandsound 1
bast 1
mahalkosibast 1
cardigan 1
chartrd 1
thinghttp 1
dorki 1
acountnt 1
thn 1
enrol 1
advisor 1
wht 1
spit 1
alen 1
malesuicid 1
steveletart 1
techtuesday 1
kohsamui 1
samui 1
dcp 1
angthong 1
gizmodo 1
askd 1
whn 1
heavili 1
itvnew 1
dami 1
hallo 1
hole 1
wir 1
sind 1
xfilm 1
fasd 1
bih 1
refil 1
shawnmph 1
percentil 1
meinerstertweet 1
bookspeci 1
photobook 1
uniron 1
kihyun 1
gmat 1
noui 1
semant 1
ux 1
walkm 1
hiptazm 1
gohd 1
bearth 1
cnat 1
fkn 1
supplier 1
fm 1
jenniferbrindl 1
obscen 1
kilogram 1
hassl 1
usernam 1
tulsasingl 1
youngcon 1
yrnf 1
youngdem 1
collegedem 1
crnc 1
aol 1
disapprov 1
surg 1
gamedev 1
behttp 1
kidcudi 1
romi 1
holder 1
mihika 1
cutiepi 1
archdioces 1
fani 1
down 1
priest 1
ayyye 1
chahiy 1
wefarm 1
lomondmrt 1
geekinhttp 1
worsley 1
walkden 1
吴弘达 1
ashram 1
diburrito 1
conced 1
crave 1
moe 1
berlinetta 1
gt 1
ferrari 1
modena 1
mef 1
millemiglia 1
harrywu 1
elsewher 1
qk 1
freeliuxiaobo 1
giantesqu 1
intimid 1
boba 1
where 1
beatz 1
mizzi 1
looooong 1
diem 1
carp 1
anselmo 1
smhttp 1
supper 1
fnb 1
googleplay 1
shadow 1
doct 1
deadlinen 1
pasta 1
martinbromiley 1
frickin 1
standardis 1
etalk 1
angelil 1
rene 1
celinedion 1
nuna 1
txst 1
methodolog 1
improvis 1
ploson 1
travelmail 1
rightsareunivers 1
bbcrecipeshttp 1
dmanagementgroup 1
fuss 1
comeshttp 1
snowden 1
janebozarth 1
costco 1
hamiltonmus 1
ukulel 1
munchkin 1
prbbli 1
anastasiaashley 1
oodl 1
miraclebasebal 1
foxhol 1
stephenporterjr 1
barri 1
relatablequot 1
wilson 1
sinow 1
parok 1
aku 1
sabor 1
dok 1
wei 1
overpopul 1
sambung 1
hom 1
uninform 1
plagu 1
fenc 1
hnn 1
fedgov 1
erad 1
sturm 1
profil 1
kek 1
itnw 1
somi 1
catcher 1
nebraska 1
jt 1
frosh 1
jv 1
adobeelearn 1
congresswinsdelhi 1
sh 1
outcom 1
darpa 1
rosenior 1
idi 1
droppin 1
chibavisu 1
duckin 1
dtbd 1
officialscalez 1
mubb 1
ellenson 1
liz 1
artificialturf 1
assassin 1
chinx 1
qual 1
poni 1
assessor 1
allah 1
younggggg 1
ada 1
ikpeazu 1
otti 1
stench 1
seal 1
ajaymaken 1
neurodevelopment 1
propylen 1
optim 1
adblock 1
roundhttp 1
lompoc 1
righetti 1
seohyun 1
yuanshanshan 1
shldnt 1
chant 1
childhist 1
teachabl 1
hinduhttp 1
smthg 1
constraint 1
infant 1
priorit 1
tel 1
naep 1
cycleenfield 1
resid 1
fel 1
epo 1
pinknomfan 1
preterm 1
apinkpcr 1
chorong 1
hiccup 1
insan 1
theү 1
batesmotel 1
cori 1
cherrybomb 1
hardwear 1
oomf 1
welfar 1
coxlesscrew 1
demograph 1
ilov 1
realign 1
thetid 1
inevit 1
joelgolbi 1
puppetri 1
absent 1
median 1
phenomenon 1
overton 1
glamor 1
sultri 1
weav 1
disclaim 1
mcc 1
lana 1
usatoday 1
cowley 1
smoulder 1
graham 1
ooooo 1
sela 1
caricomorg 1
paperless 1
plaqu 1
mortonprid 1
daysofinnov 1
lollipop 1
yuni 1
carlsjrid 1
ahhhhh 1
vinyl 1
randpaul 1
direkmik 1
como 1
comunecomo 1
ctto 1
nov 1
cooper 1
neon 1
unleash 1
betullll 1
rohan 1
skippi 1
impala 1
nova 1
gto 1
chevel 1
songwrit 1
famer 1
pupil 1
phobiaphob 1
gayl 1
brent 1
oct 1
yyz 1
wethenorth 1
musiccityusa 1
clienthttp 1
ummah 1
vigor 1
hilaria 1
breathalyz 1
alcopop 1
mercercanada 1
appropri 1
merchant 1
lighten 1
textbook 1
theemmi 1
verafarmiga 1
carbonellnestor 1
maxthieriot 1
extinct 1
kerryehrin 1
emmi 1
plzhttp 1
mek 1
sacrilegi 1
brillianc 1
miseri 1
firmli 1
thesix 1
iftar 1
ramadan 1
disappointedhttp 1
bio 1
sfcladi 1
showchampion 1
absorb 1
scotgp 1
mashabl 1
taxi 1
fort 1
mcmurray 1
maxx 1
tj 1
billionair 1
cy 1
jackietvpsych 1
instructor 1
fitzwilliam 1
flew 1
guyhttp 1
overflow 1
bestpric 1
eleno 1
palen 1
skecher 1
schiffgold 1
kimiko 1
fixtur 1
backseat 1
primarili 1
minneapoli 1
sonia 1
gooooood 1
gue 1
sumit 1
jarv 1
enit 1
jb 1
dcplanetfr 1
vo 1
hace 1
direction 1
gen 1
raheel 1
podernfamili 1
skittl 1
pab 1
sharif 1
nissan 1
stoneacr 1
mereput 1
hmmm 1
arisytn 1
kutcher 1
ashton 1
myeongdong 1
쯔위 1
monunion 1
dl 1
mjfieldsbook 1
imperfectli 1
coverrev 1
holleynew 1
newbi 1
unimport 1
hii 1
kunyolewa 1
kama 1
mah 1
kwa 1
pomb 1
kukuzia 1
horrifi 1
moree 1
chronicl 1
stlhttp 1
tpp 1
angl 1
revolut 1
zoophilohob 1
consentu 1
sensual 1
wetherli 1
ctag 1
gran 1
strictli 1
aoa 1
worldbadmintonnew 1
monsanto 1
트와이스 1
whine 1
charl 1
oreo 1
precaut 1
toe 1
prior 1
iranian 1
rhode 1
mcgill 1
talaga 1
alma 1
thornton 1
gupta 1
baekhyun 1
bam 1
ongo 1
agbokiun 1
delusion 1
lowli 1
takin 1
cocoonbeachclub 1
deck 1
struttin 1
bringin 1
mcdermitt 1
dab 1
congression 1
inpati 1
swagg 1
longev 1
buhahaha 1
rapist 1
oshi 1
verbos 1
nda 1
behaviour 1
bbm 1
mapmyfit 1
vp 1
yuck 1
clover 1
androidauth 1
withstand 1
browsefast 1
dayaangmatuwad 1
isabel 1
topnotch 1
nau 1
applaus 1
kikuyu 1
rkobh 1
dorothywang 1
actorlif 1
moncrief 1
baddriv 1
namast 1
buythisher 1
malaysian 1
bassrozay 1
wyldblack 1
allston 1
iq 1
thanx 1
reinder 1
nicekick 1
reviv 1
dreamscap 1
wineri 1
reachhttp 1
slutti 1
spreadthewordhttp 1
surehttp 1
yogurt 1
castlevania 1
analyst 1
comb 1
canalwar 1
allhttp 1
ahli 1
dawri 1
gr 1
ikrrrr 1
stimul 1
browardsheriff 1
oculu 1
miamipd 1
runningmanchalleng 1
rumi 1
jeanettejoy 1
fergusonrandi 1
cfawar 1
italotferreira 1
oiriopro 1
imagen 1
nghthttp 1
worldview 1
metaphor 1
mln 1
경수 1
exoluxioninvancouv 1
ksoo 1
pci 1
ave 1
mckinney 1
blk 1
drouin 1
privaci 1
srbjohnnyseo 1
akaworldwid 1
kristenstewart 1
sensationn 1
paypal 1
welovesmoothjazz 1
jasonmil 1
von 1
buckleupbol 1
kkt 1
lsh 1
cmaroemeto 1
sarkodi 1
casspernyovest 1
cysticfibrosi 1
hayo 1
bikeregist 1
tpraiz 1
jacobsen 1
teamhttp 1
drain 1
constant 1
solv 1
knowwww 1
intercommun 1
bumrah 1
poormeinnyc 1
ricki 1
richer 1
beckett 1
katherin 1
pont 1
violet 1
reshuffl 1
cuh 1
owh 1
sweetrom 1
merrilleewhren 1
rohamadali 1
buri 1
cyndi 1
lauper 1
cgn 1
streamerhyp 1
moob 1
bezo 1
snare 1
kyla 1
smbb 1
joytrain 1
dustyloop 1
electrocut 1
desiign 1
pll 1
youtubeshay 1
shaymitch 1
successtrain 1
spec 1
perish 1
wwii 1
jimmyfallon 1
lumia 1
lettic 1
broadwayd 1
aseefabz 1
marriott 1
cheesi 1
karachi 1
assumpt 1
ditch 1
southkorea 1
dampen 1
arrow 1
goodland 1
barronsasia 1
natgeo 1
wwemomshttp 1
degrassi 1
litcosmet 1
cpsj 1
charitybank 1
keyfund 1
chem 1
ionic 1
saa 1
peanut 1
papi 1
dycd 1
julissaferrera 1
exhibi 1
blaxploit 1
blackfac 1
lockhe 1
ttm 1
hhhschool 1
champa 1
lasagn 1
totteringham 1
groupi 1
argentinian 1
accuratehttp 1
sartori 1
hyweltrewyn 1
liluziverthttp 1
sharethi 1
mosqu 1
peski 1
beglamorousbylindsay 1
thegooglefactz 1
ginger 1
galatasaraysk 1
summit 1
caitlin 1
sandburg 1
mold 1
hardship 1
cg 1
comiss 1
mil 1
chmn 1
coa 1
dangggggg 1
zach 1
regardless 1
heedarmi 1
gateshead 1
yin 1
lucil 1
grass 1
gaah 1
figth 1
yoonqook 1
fud 1
charlottesvil 1
endpoint 1
icit 1
outbr 1
bulldog 1
bullyinh 1
arw 1
advis 1
cott 1
travi 1
gadzov 1
noregret 1
bighit 1
condol 1
conclud 1
brandonichola 1
boywilliam 1
devamahenra 1
violencecnn 1
cnnat 1
changehttp 1
jongup 1
himchan 1
forestofread 1
jeynrobert 1
dealt 1
skype 1
kuwtk 1
imomtweetshttp 1
resumehttp 1
eurorx 1
socialis 1
specialshout 1
jst 1
gf 1
astroworld 1
forthcom 1
fade 1
djdunzo 1
sham 1
veric 1
decre 1
finess 1
repellencyhttp 1
leidenfrosteffect 1
nanotextur 1
synthwav 1
synthpop 1
strawberri 1
vorderhau 1
eknathkhadsebjp 1
neddi 1
imperfect 1
절어 1
supris 1
simap 1
bute 1
corden 1
carpool 1
beebo 1
railway 1
rien 1
alexpangman 1
jeohnwoo 1
jazzbistroto 1
itz 1
overqualifi 1
jobsearch 1
waterfal 1
bankshttp 1
medal 1
cityandguild 1
lifehttp 1
woooo 1
bon 1
terlambat 1
dah 1
facetim 1
hunk 1
malik 1
bestmaleartist 1
teenchoicenomine 1
bigdataexpo 1
sysconmedia 1
karat 1
decad 1
capitol 1
zoella 1
womannn 1
suspici 1
frosinon 1
gretchel 1
alyssa 1
kiefer 1
kareng 1
mze 1
surfboard 1
jorgenson 1
fluenci 1
pncbank 1
flippformom 1
ragnarok 1
lmaohttp 1
whaattttt 1
mondaymotiv 1
marcuslattimor 1
tunnel 1
blockchainkyiv 1
kyiv 1
lisk 1
lamar 1
undervalu 1
bitten 1
dublinschool 1
deffo 1
issun 1
acquir 1
literaci 1
kentlibchat 1
dhldavidb 1
cronyism 1
sexism 1
rampant 1
complicit 1
classroom 1
artifici 1
milkar 1
greenari 1
shiiiiit 1
pleasant 1
richard 1
예성 1
duet 1
yesung 1
samar 1
attawapiskat 1
bruceshisheesh 1
abfir 1
relief 1
steward 1
chriscolf 1
beli 1
essenti 1
xo 1
alam 1
daniellebeegan 1
diemannschaft 1
yon 1
sheircamacho 1
kunwar 1
cutieeee 1
pero 1
pureagil 1
messi 1
copywrit 1
mckinsey 1
unicorn 1
advocaci 1
impair 1
baguio 1
heavenlyitalian 1
bht 1
haan 1
dishwash 1
crepe 1
wendel 1
peek 1
napoli 1
goddamn 1
grimwad 1
trampforallhttp 1
inclus 1
jalisco 1
yesterda 1
guitarist 1
vivaraul 1
vivafidel 1
vivacuba 1
catholic 1
spanielhowel 1
taknak 1
rolandgarro 1
homerunshow 1
charlottegshor 1
gautamgulati 1
doll 1
superintend 1
lonnnggg 1
cocoa 1
bsm 1
dino 1
surfer 1
butthol 1
shawna 1
kuseraberlin 1
resourceofthday 1
espresso 1
letsapa 1
reconfigur 1
disagre 1
kenni 1
ii 1
jeri 1
maxwellshous 1
cashttp 1
admittedli 1
filmi 1
congressi 1
antiwomancongress 1
heppi 1
banquet 1
hosford 1
skywalk 1
fajita 1
movin 1
kendal 1
outhttp 1
implic 1
radiohttp 1
melay 1
kbo 1
haleyymichel 1
stargembead 1
moonston 1
trumpral 1
votetrump 1
slouchi 1
bella 1
hawkin 1
parmer 1
heavy 1
thta 1
bx 1
jijaga 1
blacknwhit 1
bnw 1
bw 1
hoso 1
eikoh 1
outbreak 1
vt 1
crow 1
hatr 1
coki 1
understandhttp 1
hpvoxel 1
careless 1
spartydown 1
hale 1
coffinsonwheel 1
rshivshankar 1
mileag 1
shocker 1
unpopular 1
og 1
drinkrespons 1
goodstuff 1
grandson 1
pig 1
invisionapp 1
invis 1
briberi 1
efcc 1
yero 1
ramalan 1
kaduna 1
tinctur 1
kratom 1
inertia 1
rollercoast 1
haggisk 1
빅스 1
별빛 1
starlight 1
bananamilk 1
바나나우유 1
haz 1
usoro 1
julianburczyk 1
wetka 1
crassmedia 1
waldo 1
emerson 1
pervert 1
ncap 1
otto 1
badlyhttp 1
kr 1
niner 1
trvisxx 1
itimestweet 1
oppo 1
vive 1
masturb 1
teamcavuto 1
interiordesign 1
decor 1
vázquez 1
hebert 1
ausdriv 1
intersect 1
crippl 1
wiper 1
nicee 1
testshttp 1
gayshark 1
panarotaylor 1
tread 1
youv 1
shyness 1
tmr 1
marplehal 1
stockport 1
easymoneyst 1
nationalnewsdesk 1
brxtnmusic 1
peopleoflov 1
stpeter 1
hidden 1
nkjv 1
psalm 1
statut 1
ilightbox 1
journeywithinbookhttp 1
tirtha 1
vishvesha 1
goood 1
bravest 1
sugar 1
caramel 1
duda 1
dole 1
longtim 1
paschal 1
bruce 1
mikebloomberg 1
bann 1
surican 1
rotat 1
lawd 1
strongest 1
kissabl 1
unmiss 1
fingertip 1
teasertuesday 1
mcfli 1
ouvindo 1
tacklingtransf 1
publicagenda 1
nsclearinghous 1
communityccrc 1
aspenhigh 1
trainspot 1
psychologist 1
atlant 1
trooper 1
sculpt 1
wargam 1
touchabl 1
veget 1
hyjngqon 1
tazmaniax 1
imadeitthroughtherain 1
thetazshow 1
officialtaz 1
eunseo 1
eunseotagram 1
okcthund 1
minhgyuk 1
snowflak 1
irresist 1
exposur 1
herefordfchttp 1
chenmeicai 1
nonleaguefinalsday 1
waterhal 1
rightmov 1
heartbreak 1
braver 1
tuesdaynightlight 1
touchfootbal 1
snbtfl 1
driven 1
crusher 1
hozer 1
usher 1
worldbank 1
accrual 1
qualif 1
ipsa 1
cipfa 1
kla 1
jamesmaslow 1
maslow 1
smack 1
pitti 1
shockabl 1
decompress 1
moephuli 1
bilater 1
vascular 1
cpr 1
chingford 1
gurgaon 1
ode 1
nugget 1
gulp 1
swoonread 1
iamsandyhal 1
happiest 1
luvv 1
tramp 1
temporari 1
aonemktg 1
annoyinghttp 1
jllindia 1
forum 1
ila 1
timthetatman 1
notcountri 1
excess 1
memorialhermann 1
gameday 1
bengaluru 1
envoiarticl 1
boozallen 1
opensourc 1
dataop 1
devop 1
laid 1
martha 1
irock 1
outrag 1
thereturnofsuperman 1
babysit 1
htm 1
screech 1
insepar 1
hepawar 1
thunderclapit 1
hepat 1
viral 1
bergen 1
nearest 1
offbeat 1
nyt 1
shilpitewarihttp 1
imeerag 1
masood 1
wildatlanticway 1
backlash 1
wander 1
pedophil 1
seanhann 1
cert 1
fawcoach 1
awsummitcom 1
anxiou 1
indecis 1
strengthen 1
theteach 1
knowyournumb 1
ncd 1
bmet 1
subtract 1
unelect 1
faggot 1
asstd 1
goodluckchasehttp 1
raceday 1
prep 1
thishttp 1
urghroigh 1
aughurrugh 1
timer 1
praful 1
jordansfamilylaw 1
govdeliveri 1
hurrican 1
unfriendli 1
tertiari 1
simcardzz 1
silangw 1
yerr 1
osisi 1
phaphi 1
aba 1
cortison 1
sportscent 1
patel 1
livelifeuptown 1
uptown 1
avoncountryretreat 1
foxhillmanor 1
htn 1
thee 1
unto 1
alic 1
briancmay 1
suni 1
ardynn 1
servay 1
radiodfmjakarta 1
jazzi 1
dfmplay 1
anatom 1
correcthttp 1
nusreferendumhttp 1
nu 1
unhappi 1
colordashfabr 1
patronis 1
nasti 1
downtownkc 1
unionstationkc 1
kc 1
kansasc 1
softhit 1
opm 1
mellow 1
lovesong 1
literock 1
spreaker 1
lite 1
backup 1
chrismacrealti 1
relevanceni 1
oregonhttp 1
erasethestigma 1
condemn 1
nottinghamsown 1
urbanworship 1
trentvineyardfc 1
aup 1
sandi 1
treadmil 1
properli 1
laggi 1
zenfon 1
asu 1
ranjit 1
ndlea 1
exec 1
flw 1
ansenjoy 1
wte 1
durhamcolleg 1
ediel 1
asphalt 1
openenergi 1
newburi 1
iotmaz 1
gadget 1
officialadel 1
bambico 1
unisex 1
cushion 1
theordermovi 1
scurri 1
dati 1
hahahha 1
killari 1
bodyshop 1
ppg 1
kindlyrtpl 1
sca 1
initi 1
ubuntu 1
wisdom 1
discourag 1
clown 1
pixoto 1
justinaknop 1
reedbem 1
retak 1
pasti 1
signatur 1
hairybabyte 1
cozypowel 1
ritchieblackmor 1
starstruck 1
carer 1
kinship 1
rememberr 1
pharmaci 1
reimagin 1
mag 1
neym 1
infrastructurematt 1
oltrepo 1
duquesn 1
joplin 1
pointsm 1
gigapixel 1
trek 1
huayhuash 1
cordillera 1
tapdacooki 1
salt 1
mele 1
patch 1
pfu 1
terzi 1
legitim 1
lombardiaonlin 1
confindustriapv 1
pirolisi 1
whereverigo 1
berri 1
cheesecak 1
lesedifm 1
ipati 1
edsheeran 1
tammi 1
incorrect 1
sket 1
capsulecar 1
namo 1
digest 1
rant 1
outintheopen 1
unesco 1
gobmx 1
roman 1
pinpoint 1
windlight 1
sim 1
bryn 1
mayfair 1
ihsforha 1
globalmakerday 1
froze 1
airtim 1
mtnng 1
tnx 1
undoubtedli 1
eavesdropp 1
iamhypelyf 1
sradio 1
snd 1
thehypelyfegang 1
ezkutfilm 1
odor 1
telegraphnew 1
zee 1
visitor 1
dish 1
adword 1
lbdcommun 1
ckont 1
citifield 1
subramaniam 1
unoffici 1
favour 1
rbi 1
teahttp 1
caravan 1
perfum 1
sarbjit 1
steak 1
prinsesachinita 1
kimmi 1
yanke 1
begley 1
curri 1
hook 1
angelicalaherpabico 1
mot 1
microsit 1
dedic 1
ing 1
happ 1
indiaari 1
grammi 1
homi 1
thetradenew 1
smartstream 1
leia 1
libra 1
claus 1
industrialheritag 1
emmaww 1
natbynatur 1
dudley 1
setswana 1
botho 1
kiswahili 1
utu 1
pub 1
traditon 1
luci 1
aiden 1
rizzo 1
votto 1
aaww 1
pump 1
theqarena 1
tricedu 1
espnnba 1
foxsportsoh 1
kyrieirv 1
nim 1
columnist 1
heynek 1
aiffmergermeethttp 1
indianfootbal 1
prosper 1
sauna 1
riker 1
nar 1
realtor 1
outfitt 1
tickedofftuesday 1
rochemaddentv 1
andystrickland 1
randinaughton 1
glenda 1
cizr 1
concer 1
faysalsaryldz 1
kurdish 1
tetonsport 1
cot 1
xxl 1
doctorwho 1
realest 1
bookmark 1
lovelyz 1
surgeri 1
onuaku 1
chinanu 1
terrymein 1
pitino 1
wcvb 1
warmer 1
temp 1
milder 1
spite 1
fart 1
elev 1
fullfrontalsamb 1
credenti 1
collidernew 1
schull 1
amanda 1
spectacl 1
diplomat 1
belittl 1
whoopi 1
googlecardboard 1
momsarecooltoo 1
gestur 1
goodwil 1
artific 1
blackthorn 1
julian 1
getflipp 1
lanka 1
maithripala 1
happrn 1
uptodown 1
mina 1
pinarkurums 1
bookshttp 1
jeremyscahil 1
goodman 1
fife 1
freespeech 1
gaunt 1
mff 1
cuddl 1
orbit 1
everth 1
raider 1
chapman 1
southeast 1
ebonyi 1
lamp 1
usf 1
vtg 1
blesser 1
pto 1
crestfallen 1
mythil 1
afair 1
fedexforum 1
ruthless 1
yerin 1
stanleycuphttp 1
larryfitzgerald 1
scholarship 1
bâ 1
mariama 1
feminin 1
pokemen 1
pokémon 1
hdvee 1
scriptvinyl 1
spafind 1
iamsambe 1
seattleseaward 1
palmeira 1
disneyland 1
mngxitama 1
quentin 1
kinabalu 1
kota 1
habour 1
ursumversu 1
kp 1
rawlinsandco 1
colli 1
foster 1
rockymount 1
timehttp 1
hahahahahahaahhahaha 1
bdzrrq 1
parc 1
ded 1
chosen 1
thunderclap 1
charmer 1
terrifi 1
ugc 1
informaticacar 1
bain 1
andyinfa 1
hennessi 1
berman 1
bergdahl 1
mutant 1
malnutrit 1
moenchpfann 1
gitmo 1
orangotag 1
dread 1
penni 1
assisti 1
tensionhttp 1
undermin 1
jenner 1
caitlyn 1
undercov 1
hodgson 1
woy 1
detaine 1
tubelightu 1
coat 1
libya 1
embargo 1
creativejob 1
clairepaschen 1
dst 1
png 1
guin 1
oldest 1
italian 1
dam 1
welcomejos 1
mmsmoa 1
indiannew 1
cadillac 1
portsbeforesport 1
emt 1
세훈 1
nip 1
nirankari 1
berkasih 1
resepi 1
londonkoreanist 1
tonypark 1
respir 1
biol 1
jointhedr 1
glaadventur 1
pallobberjot 1
sagphoenix 1
aest 1
bst 1
dbgill 1
opticgam 1
whendoesopticplay 1
dongsaeng 1
kyungsoo 1
fome 1
gottaviani 1
marciemcn 1
superpeek 1
mobilepublicsch 1
dodgeelementari 1
bossladi 1
weaver 1
whatatim 1
smartkick 1
hrw 1
savagemod 1
crip 1
fattest 1
suchawhitegirl 1
businesstrip 1
idliketobuytheworldacok 1
billback 1
cokestori 1
coke 1
illicit 1
transformdrug 1
baba 1
hardev 1
techlov 1
presumpt 1
vers 1
jgfedder 1
trimest 1
outlin 1
colv 1
tryin 1
nite 1
atdf 1
lexg 1
ecommerc 1
eyebrow 1
richfield 1
chu 1
cphftw 1
iba 1
akshaykumar 1
samji 1
farhad 1
agreement 1
payment 1
es 1
buenmart 1
buendia 1
hahahaa 1
forsak 1
lizmacdonaldfox 1
kennedyn 1
sandrasmithfox 1
harrisfaulkn 1
judgealexferr 1
radcliff 1
royalti 1
eiljah 1
hardworkpaysoff 1
sheild 1
rugbi 1
leithp 1
fhsphysic 1
pharaoh 1
agentmay 1
bibletrivia 1
simplifi 1
eunha 1
input 1
bakeshop 1
rrbc 1
teamsiriushttp 1
bek 1
paradox 1
fission 1
herobrin 1
mannkibaat 1
valeria 1
foxnewspolit 1
comi 1
beefi 1
boast 1
elitebook 1
upadhyaysbjp 1
bjpshyamjaju 1
amitshah 1
loosewomen 1
misskatiepric 1
painter 1
vienna 1
showmar 1
nic 1
kay 1
onyem 1
andra 1
nafsika 1
chantre 1
lizzi 1
glimp 1
gah 1
rockmus 1
rockular 1
ibaka 1
ie 1
reggi 1
tidi 1
systemat 1
unifi 1
encroach 1
stefan 1
sterolin 1
sterolinewish 1
botlan 1
tumblr 1
henna 1
oneplu 1
huhu 1
meeee 1
disss 1
listia 1
axor 1
bharat 1
unravel 1
quietslxm 1
nct 1
kitchenhttp 1
asiahttp 1
hangout 1
yahyah 1
tutu 1
steeplechas 1
obscur 1
unchang 1
ohmayghaaaad 1
conkerhimself 1
fki 1
cibu 1
anima 1
stoke 1
gvenketram 1
saravanastor 1
ihansika 1
photoshoot 1
waitress 1
clientel 1
furnituredesign 1
malpractic 1
allhumdulliah 1
thankyoumahindra 1
mahindraris 1
legomarvelgam 1
hhhey 1
lobster 1
indiavideo 1
adi 1
ishita 1
raman 1
mohabbatein 1
aveng 1
awhil 1
hadid 1
penshopp 1
folat 1
renni 1
sagittariu 1
harlem 1
aldotcom 1
wheein 1
jungmo 1
heechul 1
crossbre 1
arcanin 1
ninetail 1
pokemon 1
forestandfound 1
segawa 1
yuta 1
oneyearon 1
spade 1
culprit 1
dictat 1
izotop 1
everhttp 1
denois 1
atx 1
cozi 1
gloomi 1
cloutthat 1
malcolm 1
krazi 1
lib 1
abstain 1
banner 1
ledger 1
playit 1
afff 1
pretzel 1
garner 1
zah 1
trayner 1
ballin 1
spraygun 1
buckcherri 1
orpando 1
chillin 1
gardenwarfar 1
inkmast 1
nyliberti 1
shenanigan 1
uncondit 1
blacklivesmatt 1
shackl 1
gd 1
nopd 1
surveil 1
gqije 1
lieu 1
beelin 1
awaken 1
herbal 1
mslizajanedo 1
plugin 1
cryingggg 1
copenhagen 1
newshour 1
lootcrat 1
thano 1
ob 1
whitecuberadio 1
fourtwo 1
you 1
avrillavign 1
forag 1
hepworthgalleri 1
dirk 1
nowitzki 1
hartford 1
wcf 1
owdo 1
rockasockmonday 1
drawn 1
lotto 1
kohttp 1
kinanlan 1
tryn 1
lorri 1
irfan 1
chaffetz 1
sequenc 1
stillwillchilluntil 1
bellingham 1
takedown 1
breitbartnew 1
disgrac 1
groovi 1
womendeliv 1
jefferi 1
sole 1
suffolk 1
worcest 1
yourhealth 1
ariband 1
tack 1
kasturiiiiiii 1
mitro 1
asfhttp 1
anonym 1
aeratron 1
billkristol 1
simplic 1
lohanthoni 1
reel 1
boi 1
chrish 1
roundtrip 1
oman 1
milan 1
bosnia 1
womensupport 1
malcolmbrab 1
jew 1
sleepless 1
buttercream 1
huyyyyy 1
nvdemconvent 1
ptsd 1
urbanit 1
ndo 1
threeleggedrac 1
hw 1
fuuuhh 1
gunna 1
dearaki 1
tentacl 1
hourhttp 1
peed 1
atlanticedu 1
catoinstitut 1
parcc 1
aonbiggest 1
sheldonpapp 1
djinchi 1
hutchysnypa 1
rupeshsaig 1
imad 1
davido 1
jamil 1
savag 1
tiwa 1
thevampsmarga 1
redeem 1
cumul 1
titleiii 1
roberta 1
youngafrica 1
toofemal 1
fatalxela 1
hsdocclub 1
ontario 1
thebloorcinema 1
suitabl 1
wasnt 1
whichev 1
myyyyyyyyyy 1
lawcomindia 1
stopabuseofmen 1
ministrywcd 1
wallet 1
killerwif 1
harleyquinn 1
margotrobbi 1
immatur 1
ukdiscountssal 1
welcometweet 1
hatin 1
sadhttp 1
uncomfort 1
bdutt 1
pressitut 1
jollibe 1
yieee 1
ndp 1
jamal 1
fabro 1
dupont 1
amin 1
roadtojyb 1
isobt 1
rhine 1
veggi 1
gambia 1
evanston 1
patio 1
stamford 1
remotework 1
remot 1
infield 1
sloppi 1
welli 1
bogu 1
cma 1
nationalvegetarianweek 1
payno 1
wiz 1
bakersroyal 1
aaaeha 1
hanley 1
jordanknight 1
ramirez 1
taengsic 1
ntk 1
bodymusicvideo 1
kinder 1
sthlmtech 1
herrera 1
fg 1
paddyppileup 1
glasshttp 1
lago 1
iganmu 1
indycar 1
gustó 1
glossari 1
banda 1
zeppelin 1
led 1
cdnpoli 1
upz 1
infosec 1
dbir 1
faux 1
tsmzero 1
cling 1
employe 1
aduk 1
apvsa 1
massucco 1
thisweekindearborn 1
dbnfarmersmkt 1
akron 1
iamtjan 1
twaynebsm 1
superbowl 1
youtube面白動画 1
vera 1
marchofdimesm 1
yalllll 1
bork 1
flotu 1
cartoon 1
flint 1
officialmarko 1
mcdonnel 1
itchin 1
brotha 1
bahia 1
urbi 1
cubanhttp 1
morecamb 1
mstaff 1
athloneit 1
instrgram 1
takeov 1
bankheadsplurg 1
ait 1
hetero 1
disparag 1
dfa 1
bbq 1
hngsudburi 1
cdaislamabad 1
burnley 1
cher 1
graphen 1
warmth 1
sheknow 1
gine 1
rub 1
easier 1
mentorship 1
acceler 1
entrepreneurship 1
wiishu 1
mithrilhttp 1
establish 1
jihadi 1
colab 1
minim 1
critiqu 1
flourish 1
trunk 1
stretch 1
louievanwolf 1
crackdown 1
movingon 1
kagehina 1
milbourn 1
vertigocom 1
sip 1
muthafucka 1
sharper 1
rbc 1
pennsylvania 1
slugger 1
armpit 1
atcup 1
remier 1
platinumpuzzyradio 1
gel 1
pension 1
pond 1
crossfir 1
stephen 1
rom 1
kernel 1
modgourmetgala 1
vacacion 1
mallorca 1
thenatlinterest 1
followthemov 1
aomg 1
성균관대 1
matti 1
businessinsid 1
physicist 1
fullymentalswami 1
marchofdim 1
mrpeepssay 1
trackhttp 1
steeltippeddov 1
bondag 1
rope 1
milano 1
paig 1
dail 1
gangland 1
dire 1
poverti 1
thecanarysay 1
loroparqu 1
youngstownst 1
influx 1
pucha 1
ijustwannad 1
belt 1
brass 1
maliputon 1
giphi 1
pnehlen 1
waynedupreeshow 1
drvisser 1
morgan 1
fatcat 1
bawl 1
nigha 1
liiiiiiv 1
dwt 1
anniebarrett 1
voxdotcom 1
wreck 1
bizshar 1
surround 1
wirral 1
reptrentkelli 1
argyletaxi 1
senatorwick 1
yegfashion 1
allbusi 1
utahfoodfreedom 1
bhawanasomaaya 1
environment 1
oligarchi 1
democraci 1
worldrx 1
religi 1
falz 1
mtn 1
alien 1
haii 1
walaaa 1
happpiie 1
jaan 1
ictafrica 1
ott 1
guru 1
happyhair 1
kitandcoco 1
duckanddri 1
loveee 1
mettetrxhttp 1
barunsobti 1
anchor 1
taj 1
reboot 1
reunionhttp 1
qatar 1
nprcodeswitch 1
mettet 1
reut 1
crecenteb 1
fiaworldrx 1
trevor 1
massag 1
tissu 1
beenshed 1
asuthosh 1
ram 1
hindustans 1
samoka 1
momentshttp 1
yaffi 1
fridg 1
guh 1
trueeee 1
disneylandsound 1
foreverjosee 1
gayassstunt 1
trini 1
nicol 1
rhi 1
elitist 1
diamondandsilk 1
andrea 1
greenhttp 1
ophelia 1
lumin 1
sont 1
reliv 1
millennialpdcst 1
radiotopia 1
sleuth 1
digimon 1
milner 1
subvers 1
remak 1
negga 1
twilight 1
eathttp 1
manli 1
noooo 1
celesti 1
imperi 1
heian 1
um 1
shikibu 1
murasaki 1
skate 1
zed 1
lynch 1
paxton 1
actuallyhttp 1
finland 1
poop 1
nothin 1
youuuuu 1
itspaigeturco 1
tinyturc 1
dif 1
futuregood 1
growthhack 1
swyd 1
dvd 1
versatil 1
vein 1
godsend 1
marciajeff 1
scrimsvit 1
smg 1
somm 1
nou 1
littlebayroot 1
cazorla 1
squatch 1
torr 1
infrastructur 1
polyurea 1
aonepromot 1
adallin 1
uouououoooooo 1
acab 1
pena 1
delph 1
sabcnewshttp 1
effparlia 1
henderson 1
somon 1
somth 1
slb 1
campeon 1
adoptotech 1
upvot 1
patti 1
andrzejduda 1
stupidest 1
waaaaaaay 1
boooooy 1
charlesthafreak 1
majboori 1
twiter 1
disintrest 1
nowday 1
inakamitsu 1
askundp 1
whsummit 1
globaldev 1
beani 1
velvet 1
skulli 1
winter 1
autumn 1
molli 1
hoodieallen 1
sneakyyyyybirrrrdzzzz 1
duddee 1
sanctuari 1
resolveindi 1
forseen 1
mashki 1
carrieffish 1
deltaralh 1
dun 1
rem 1
ciara 1
archeologist 1
deviant 1
mylov 1
myke 1
newphoto 1
artistslif 1
fazo 1
hyung 1
trvisxxhttp 1
gwenshomemadegift 1
jyp 1
qew 1
mississauga 1
bayless 1
bartend 1
kanter 1
ene 1
killeri 1
eyelid 1
rotom 1
healthitnew 1
adoptdog 1
picken 1
lionel 1
nypd 1
féin 1
sinn 1
isol 1
lorimoreno 1
smartnewshttp 1
habitatn 1
snl 1
wilefontain 1
nikko 1
mummi 1
polnyypeset 1
popcrush 1
marano 1
jauregui 1
lauren 1
judiciari 1
obstruct 1
pseudo 1
islassmil 1
portchar 1
charitytuesdaypleas 1
wedgesawar 1
justthinkaboutit 1
bitterbluebird 1
neq 1
waughthistleton 1
diego 1
yogi 1
camel 1
gosh 1
robb 1
bigaon 1
cheapskat 1
everyonesweet 1
dooooood 1
farziw 1
hooker 1
ericosiu 1
instant 1
paulbroth 1
josebov 1
rightli 1
debthttp 1
conservat 1
martyr 1
chalkboard 1
scope 1
marcosadiehl 1
citat 1
acr 1
arvindkejriw 1
omgggg 1
lolol 1
lho 1
lecet 1
nanti 1
rvlog 1
radityadika 1
calistoga 1
loveli 1
cfsl 1
geniun 1
coteri 1
org 1
dissip 1
injustic 1
omc 1
morebullshitforveteran 1
orphanag 1
alibaba 1
queri 1
ibdinvestor 1
clock 1
mmatsil 1
chwe 1
privileg 1
kidney 1
issokitim 1
sixxam 1
oki 1
rocklahoma 1
liveabl 1
bedroom 1
gamespot 1
hollllaaa 1
baltop 1
oraclemktgcloud 1
gaeta 1
ussmountwhitney 1
usnavyeurop 1
smartspeedoo 1
dial 1
akeroyd 1
stiritz 1
portend 1
numer 1
nehttp 1
yeaaay 1
joong 1
pfa 1
özil 1
mesut 1
meter 1
valverd 1
brio 1
tvc 1
ini 1
hari 1
sama 1
kemarin 1
gtx 1
hbu 1
geforc 1
eurogam 1
flab 1
goodhealth 1
coolest 1
transformationtuesday 1
vst 1
alm 1
tfsbuck 1
payday 1
workhttp 1
avalin 1
herbalif 1
ownership 1
chancellor 1
hlf 1
dyinglightgam 1
humil 1
dispos 1
wecould 1
makingout 1
legendsofansu 1
grr 1
realism 1
gritti 1
tolkien 1
jrr 1
majesti 1
cantstopwontstop 1
christlikespous 1
marriagetakeswork 1
marriagework 1
spous 1
stethoscop 1
clinicloud 1
pap 1
kicksonfir 1
camo 1
nmd 1
dunkindonut 1
ultra 1
upgrad 1
millionair 1
pleasee 1
litb 1
catalyst 1
soft 1
turnbul 1
nbn 1
deduct 1
albawabaenglish 1
saudiarabia 1
gunmen 1
powervot 1
fhm 1
lancet 1
mph 1
bialetti 1
righttofin 1
krypto 1
smoothli 1
dime 1
lismor 1
filli 1
gilbert 1
sexiest 1
workplac 1
treasur 1
heheheh 1
sia 1
matur 1
began 1
warhttp 1
송중기 1
crore 1
postal 1
cardin 1
apreciat 1
pistol 1
beretta 1
allig 1
slump 1
ectocool 1
tressaja 1
gameritisguy 1
shower 1
spaghetti 1
roenick 1
tanamongeau 1
daltonrapattoni 1
baml 1
coucil 1
cath 1
cphva 1
gentli 1
valid 1
girlgroup 1
naver 1
awok 1
tmall 1
robinshulman 1
darey 1
topographi 1
premium 1
videoclip 1
pe 1
insp 1
hisandh 1
mound 1
hain 1
jati 1
mow 1
chor 1
hmray 1
agr 1
islamabad 1
watford 1
sinclair 1
jerom 1
inqur 1
daveeddigg 1
deceiv 1
ndapant 1
clairecoffe 1
mistergiuntoli 1
flula 1
buddymoon 1
anymorehttp 1
arunjaitley 1
agreethen 1
ministri 1
jurisdict 1
smritiirani 1
verdict 1
busch 1
suho 1
gress 1
dgocuti 1
gunhttp 1
threaten 1
clevingerhttp 1
detwil 1
pachang 1
broward 1
abund 1
usairforc 1
leadnowca 1
morton 1
puglaa 1
huntertootoo 1
ronaldklain 1
headquart 1
misquot 1
mbasecondari 1
biker 1
davidhsteven 1
ndaa 1
bulet 1
yalit 1
specficrt 1
dragonwritersdwc 1
rahdieh 1
dagger 1
embroid 1
incindia 1
lightskin 1
aunt 1
viv 1
yebow 1
dunkin 1
foamcc 1
mede 1
foamp 1
distinct 1
sedat 1
procedur 1
saniti 1
paw 1
chloë 1
redecor 1
moretz 1
attach 1
umur 1
madrid 1
nava 1
keylor 1
markiepooh 1
optimist 1
taylorswift 1
torontopolicehttp 1
hardwick 1
beckham 1
pace 1
tackl 1
beuti 1
bethannhamilton 1
